[Molden Format]
[Atoms] (AU)
H    1    1         -17.0075351291         0.0000000000         0.0000000000
H    2    1         -13.2280828782         0.0000000000         0.0000000000
H    3    1          -9.4486306273         0.0000000000         0.0000000000
H    4    1          -5.6691783764         0.0000000000         0.0000000000
H    5    1          -1.8897261255         0.0000000000         0.0000000000
H    6    1           1.8897261255         0.0000000000         0.0000000000
H    7    1           5.6691783764         0.0000000000         0.0000000000
H    8    1           9.4486306273         0.0000000000         0.0000000000
H    9    1          13.2280828782         0.0000000000         0.0000000000
H   10    1          17.0075351291         0.0000000000         0.0000000000
[GTO]
  1 0
 s    3  1.00
       13.0100000000         0.0196850000
        1.9620000000         0.1379770000
        0.4446000000         0.4781480000
 s    1  1.00
        0.1220000000         1.0000000000
 p    1  1.00
        0.7270000000         1.0000000000

  2 0
 s    3  1.00
       13.0100000000         0.0196850000
        1.9620000000         0.1379770000
        0.4446000000         0.4781480000
 s    1  1.00
        0.1220000000         1.0000000000
 p    1  1.00
        0.7270000000         1.0000000000

  3 0
 s    3  1.00
       13.0100000000         0.0196850000
        1.9620000000         0.1379770000
        0.4446000000         0.4781480000
 s    1  1.00
        0.1220000000         1.0000000000
 p    1  1.00
        0.7270000000         1.0000000000

  4 0
 s    3  1.00
       13.0100000000         0.0196850000
        1.9620000000         0.1379770000
        0.4446000000         0.4781480000
 s    1  1.00
        0.1220000000         1.0000000000
 p    1  1.00
        0.7270000000         1.0000000000

  5 0
 s    3  1.00
       13.0100000000         0.0196850000
        1.9620000000         0.1379770000
        0.4446000000         0.4781480000
 s    1  1.00
        0.1220000000         1.0000000000
 p    1  1.00
        0.7270000000         1.0000000000

  6 0
 s    3  1.00
       13.0100000000         0.0196850000
        1.9620000000         0.1379770000
        0.4446000000         0.4781480000
 s    1  1.00
        0.1220000000         1.0000000000
 p    1  1.00
        0.7270000000         1.0000000000

  7 0
 s    3  1.00
       13.0100000000         0.0196850000
        1.9620000000         0.1379770000
        0.4446000000         0.4781480000
 s    1  1.00
        0.1220000000         1.0000000000
 p    1  1.00
        0.7270000000         1.0000000000

  8 0
 s    3  1.00
       13.0100000000         0.0196850000
        1.9620000000         0.1379770000
        0.4446000000         0.4781480000
 s    1  1.00
        0.1220000000         1.0000000000
 p    1  1.00
        0.7270000000         1.0000000000

  9 0
 s    3  1.00
       13.0100000000         0.0196850000
        1.9620000000         0.1379770000
        0.4446000000         0.4781480000
 s    1  1.00
        0.1220000000         1.0000000000
 p    1  1.00
        0.7270000000         1.0000000000

  10 0
 s    3  1.00
       13.0100000000         0.0196850000
        1.9620000000         0.1379770000
        0.4446000000         0.4781480000
 s    1  1.00
        0.1220000000         1.0000000000
 p    1  1.00
        0.7270000000         1.0000000000

[5D]
[9G]

[MO]
 Sym= A
 Ene=        -4.4619457993e-01
 Spin= Alpha
 Occup=         1.0000000000e+00
  1         1.6039625653e-02
  2         2.5411258276e-02
  3         6.1052679947e-05
  4         1.2687094394e-16
  5        -1.2816822873e-16
  6        -7.2493286235e-03
  7        -5.1172317140e-03
  8        -2.0276067490e-03
  9        -2.5279409262e-18
 10         2.0504367264e-16
 11        -4.6285108809e-02
 12        -6.9742427782e-02
 13         9.1906647931e-04
 14         7.2594712914e-18
 15        -1.4449115344e-16
 16         4.3297447502e-02
 17         1.2333064713e-02
 18         7.4192892687e-03
 19         2.3060115742e-17
 20         3.4842922586e-17
 21         2.9907353160e-01
 22         3.6915436795e-01
 23         9.1544411119e-03
 24         3.8075168973e-17
 25        -1.2512593733e-16
 26         2.9907353848e-01
 27         3.6915437431e-01
 28        -9.1544404717e-03
 29        -4.9802411274e-17
 30         5.8786428474e-17
 31         4.3297470707e-02
 32         1.2333093218e-02
 33        -7.4192887511e-03
 34        -4.6753096199e-18
 35        -8.1366767782e-17
 36        -4.6285088031e-02
 37        -6.9742402377e-02
 38        -9.1906723036e-04
 39        -1.5763254016e-17
 40        -4.9366830764e-17
 41        -7.2493274078e-03
 42        -5.1172332713e-03
 43         2.0276062182e-03
 44         2.3749999421e-18
 45        -7.3610785390e-17
 46         1.6039621304e-02
 47         2.5411252229e-02
 48        -6.1052634604e-05
 49        -3.3003436145e-18
 50         3.0939535682e-17
 Sym= A
 Ene=        -4.3002305604e-01
 Spin= Alpha
 Occup=         1.0000000000e+00
  1        -3.1314379202e-03
  2        -4.7811653834e-03
  3        -1.8591412112e-05
  4        -6.1946792657e-17
  5        -4.1820383387e-17
  6         7.6380735240e-04
  7         3.5613739965e-04
  8         3.2471125299e-04
  9        -1.6389174151e-16
 10        -8.0723161080e-17
 11         6.9237668888e-03
 12         1.0660309569e-02
 13        -7.7676469951e-05
 14         3.7713844321e-18
 15         5.3195272850e-17
 16        -2.6019423680e-03
 17        -1.6000161591e-03
 18        -7.2279461914e-04
 19        -5.6617476423e-17
 20         7.8305294179e-18
 21        -1.5903778970e-02
 22        -2.5669657052e-02
 23         1.8191077433e-04
 24        -4.2620691787e-17
 25         1.7771207953e-16
 26         8.0964415454e-03
 27         7.2312542600e-03
 28         2.0207758319e-03
 29        -2.4635100436e-17
 30        -9.9795179432e-17
 31         4.5486178867e-02
 32         6.6846269496e-02
 33        -9.9961411968e-04
 34        -8.7248883476e-18
 35         6.0816562380e-17
 36        -4.4099379680e-02
 37        -8.6161412622e-03
 38        -7.2583735827e-03
 39        -6.4556190314e-18
 40         1.0722774653e-16
 41        -3.0386827378e-01
 42        -3.8466112770e-01
 43        -9.8753983028e-03
 44        -2.5297249111e-18
 45         3.8083840774e-18
 46        -3.0245893954e-01
 47        -3.6319484574e-01
 48         1.3136722564e-02
 49        -6.9681846878e-17
 50         5.6928431765e-17
 Sym= A
 Ene=        -4.0408608829e-01
 Spin= Alpha
 Occup=         1.0000000000e+00
  1        -6.9644477385e-03
  2        -1.0671386881e-02
  3        -1.9910005358e-05
  4        -5.6260786553e-17
  5        -1.1255688109e-17
  6         2.3501494425e-03
  7         1.1429863525e-03
  8         7.4645813683e-04
  9        -7.2209156831e-17
 10        -2.6117312012e-17
 11         1.6450970435e-02
 12         2.6444499306e-02
 13        -1.9552117712e-04
 14        -4.8898430527e-17
 15        -2.2437097946e-17
 16        -8.5083420580e-03
 17        -7.2130996323e-03
 18        -2.0548471254e-03
 19        -6.2667137985e-17
 20         1.5325204590e-16
 21        -4.6394057551e-02
 22        -6.9844707427e-02
 23         9.7903480285e-04
 24        -5.6685115241e-17
 25        -9.5116028813e-17
 26         4.4472981815e-02
 27         1.3578019180e-02
 28         7.4822257830e-03
 29        -1.0957194813e-17
 30         1.5463040005e-18
 31         3.0020296086e-01
 32         3.7139968366e-01
 33         9.1232889352e-03
 34         7.7283675361e-17
 35        -1.1662303195e-16
 36         2.9898164161e-01
 37         3.6909348765e-01
 38        -9.4211117616e-03
 39         6.7732623458e-18
 40         1.4471192846e-17
 41         3.8459820297e-02
 42         5.2056644656e-03
 43        -7.2593973771e-03
 44        -2.5415652086e-17
 45        -1.6137423594e-16
 46        -4.5979052136e-02
 47        -6.8662523559e-02
 48        -2.2223021724e-04
 49         1.7688692558e-17
 50         7.8989257340e-17
 Sym= A
 Ene=        -3.6953468929e-01
 Spin= Alpha
 Occup=         1.0000000000e+00
  1         4.5979052836e-02
  2         6.8662523865e-02
  3        -2.2223013017e-04
  4         6.2022071020e-17
  5         1.5735902990e-17
  6        -3.8459817545e-02
  7        -5.2056613446e-03
  8        -7.2593972708e-03
  9         2.0732307465e-17
 10         1.1914126614e-16
 11        -2.9898163731e-01
 12        -3.6909348152e-01
 13        -9.4211118875e-03
 14        -9.4929264055e-18
 15        -9.4705727870e-17
 16        -3.0020296468e-01
 17        -3.7139968528e-01
 18         9.1232883081e-03
 19         3.4038696362e-17
 20        -7.3986884363e-17
 21        -4.4473005662e-02
 22        -1.3578049015e-02
 23         7.4822251481e-03
 24         5.7063813439e-19
 25        -2.6162004402e-17
 26         4.6394036866e-02
 27         6.9844680590e-02
 28         9.7903573200e-04
 29        -2.0635569779e-17
 30         8.8974210974e-17
 31         8.5083486899e-03
 32         7.2131109120e-03
 33        -2.0548462835e-03
 34         3.0176077262e-17
 35        -5.4554687908e-17
 36        -1.6450957396e-02
 37        -2.6444482208e-02
 38        -1.9552142784e-04
 39         3.3657698066e-17
 40        -5.9336028853e-18
 41        -2.3501481743e-03
 42        -1.1429864582e-03
 43         7.4645773549e-04
 44         8.5603577658e-19
 45         3.5795153882e-17
 46         6.9644445587e-03
 47         1.0671382175e-02
 48        -1.9909985862e-05
 49        -2.4218526670e-17
 50        -5.9015743327e-17
 Sym= A
 Ene=        -3.3252595783e-01
 Spin= Alpha
 Occup=         1.0000000000e+00
  1         3.0245893913e-01
  2         3.6319484511e-01
  3         1.3136722565e-02
  4        -1.4669541473e-16
  5        -6.8525882169e-17
  6         3.0386827409e-01
  7         3.8466112777e-01
  8        -9.8753982407e-03
  9         1.3021605940e-17
 10         5.2128505861e-17
 11         4.4099382032e-02
 12         8.6161442364e-03
 13        -7.2583735213e-03
 14         6.0369718148e-18
 15         2.4771097673e-19
 16        -4.5486176982e-02
 17        -6.6846266958e-02
 18        -9.9961422306e-04
 19         3.0080981064e-17
 20        -1.0173329752e-16
 21        -8.0964427553e-03
 22        -7.2312560647e-03
 23         2.0207757367e-03
 24        -2.3804448243e-17
 25         9.2856956504e-17
 26         1.5903777275e-02
 27         2.5669654801e-02
 28         1.8191082426e-04
 29        -8.1258226283e-18
 30        -9.6923799328e-17
 31         2.6019426062e-03
 32         1.6000166755e-03
 33        -7.2279455332e-04
 34        -8.6257723495e-17
 35         2.8134327054e-16
 36        -6.9237660393e-03
 37        -1.0660308419e-02
 38        -7.7676479701e-05
 39        -2.3186706161e-17
 40        -1.2969168155e-16
 41        -7.6380721735e-04
 42        -3.5613733500e-04
 43         3.2471122622e-04
 44         2.1710371561e-17
 45         1.1530109646e-16
 46         3.1314377339e-03
 47         4.7811650908e-03
 48        -1.8591412843e-05
 49         3.8538196690e-18
 50        -2.3549248845e-17
 Sym= A
 Ene=        -1.2736348506e-01
 Spin= Alpha
 Occup=         0.0000000000e+00
  1         3.5692367993e-02
  2         2.8273586519e-02
  3         8.2906251861e-03
  4         6.9050869075e-17
  5        -1.1699107776e-16
  6         8.4791169328e-02
  7         1.8866071859e-01
  8        -1.5470819585e-02
  9        -8.9671722688e-18
 10         1.2201090953e-16
 11        -3.3882017292e-01
 12        -6.2006000154e-01
 13         1.4651296644e-02
 14         7.3872337248e-18
 15         2.1180886749e-17
 16         3.3651865750e-01
 17         6.1744405051e-01
 18         1.4549079914e-02
 19        -5.3325826297e-18
 20         5.9407981996e-17
 21        -8.7009857682e-02
 22        -1.8380822341e-01
 23        -1.5437109195e-02
 24        -4.1995600350e-18
 25        -1.9166014249e-17
 26        -3.0254715785e-02
 27        -4.0463525703e-02
 28         7.6509659045e-03
 29         4.5648157813e-18
 30        -9.4525035493e-17
 31         3.4935479727e-03
 32         2.5364457552e-02
 33        -7.8900516203e-04
 34         7.3247179513e-17
 35         1.1080191249e-16
 36         1.9765120488e-02
 37         1.7515243451e-02
 38         2.9413542736e-04
 39         1.4425758139e-18
 40        -9.1269681684e-17
 41        -5.0927503470e-03
 42        -5.2901159530e-03
 43        -8.7984918397e-04
 44        -4.7979767217e-18
 45        -6.5937064126e-17
 46        -6.4208695310e-03
 47        -9.4904702666e-03
 48         3.7026166342e-04
 49        -5.9194930344e-18
 50         1.1527558577e-16
 Sym= A
 Ene=        -7.8346187844e-02
 Spin= Alpha
 Occup=         0.0000000000e+00
  1        -3.1686309284e-03
  2        -3.7773158373e-03
  3        -8.7890738480e-05
  4         1.0918662799e-16
  5        -5.6971954360e-17
  6        -1.1549244880e-03
  7        -3.4024906224e-03
  8         2.1848522377e-04
  9        -1.1021688591e-16
 10         2.5876620340e-17
 11         6.3929054930e-03
 12         1.0560271610e-02
 13         3.1962509535e-04
 14         3.5733851624e-18
 15         2.1145152428e-17
 16         4.8293407141e-03
 17         4.7266829012e-03
 18        -8.8429975003e-04
 19        -1.6095877107e-18
 20         3.5186610682e-17
 21        -1.9120998163e-02
 22        -1.7627897035e-02
 23         3.1602917774e-04
 24         1.8297494956e-17
 25        -1.0640322175e-16
 26        -2.7566683250e-03
 27        -2.2325106896e-02
 28        -6.9208427386e-04
 29        -5.9083982201e-17
 30         8.6617161417e-17
 31         3.0344309541e-02
 32         3.7477896059e-02
 33         7.1647072249e-03
 34         7.8556183141e-18
 35         6.5541924624e-17
 36         8.0801430058e-02
 37         1.8147671278e-01
 38        -1.4637321804e-02
 39         1.1399708532e-17
 40         1.3812475132e-16
 41        -3.2976199376e-01
 42        -6.2056524109e-01
 43         1.2995332473e-02
 44         2.4792271455e-17
 45         5.6057050016e-17
 46         3.1924187632e-01
 47         5.9946001052e-01
 48         1.6525326572e-02
 49        -2.6196904495e-18
 50         1.5122535326e-17
 Sym= A
 Ene=        -2.4741807699e-02
 Spin= Alpha
 Occup=         0.0000000000e+00
  1        -1.8603372358e-02
  2        -1.6559302976e-02
  3         3.0303901420e-04
  4        -4.4407914394e-17
  5        -7.6966662521e-17
  6        -3.3648924335e-03
  7        -2.4818197204e-02
  8        -8.6911538365e-04
  9        -6.0801109995e-19
 10         1.0576045707e-16
 11         3.0414335851e-02
 12         3.9952098176e-02
 13         7.7118339191e-03
 14        -4.2159223560e-19
 15        -6.2050289072e-17
 16         8.8024211899e-02
 17         1.8567142553e-01
 18        -1.5361428098e-02
 19         1.5674687609e-18
 20         4.4711459092e-17
 21        -3.3768132582e-01
 22        -6.1686026912e-01
 23         1.4443222013e-02
 24         1.3487534620e-17
 25         1.6421807106e-17
 26         3.3768132522e-01
 27         6.1686026797e-01
 28         1.4443222126e-02
 29        -3.1823806462e-17
 30         2.9555560049e-17
 31        -8.8024210183e-02
 32        -1.8567142231e-01
 33        -1.5361428166e-02
 34         1.3129446842e-17
 35        -3.1979464239e-17
 36        -3.0414337344e-02
 37        -3.9952100968e-02
 38         7.7118338334e-03
 39         1.9063451636e-17
 40         8.2751593342e-17
 41         3.3648925041e-03
 42         2.4818197500e-02
 43        -8.6911529899e-04
 44         1.4415482218e-17
 45        -4.5714838988e-17
 46         1.8603372812e-02
 47         1.6559303651e-02
 48         3.0303899127e-04
 49         5.7627838210e-18
 50         8.4504719928e-17
 Sym= A
 Ene=         2.5524450924e-02
 Spin= Alpha
 Occup=         0.0000000000e+00
  1         6.4208694351e-03
  2         9.4904701845e-03
  3         3.7026166301e-04
  4         5.6961854200e-17
  5         1.9016921410e-18
  6         5.0927503102e-03
  7         5.2901157866e-03
  8        -8.7984918499e-04
  9        -3.9065516006e-17
 10         6.8313189598e-17
 11        -1.9765120265e-02
 12        -1.7515243120e-02
 13         2.9413546201e-04
 14        -1.7857900236e-18
 15        -3.0268755291e-17
 16        -3.4935476172e-03
 17        -2.5364456777e-02
 18        -7.8900524068e-04
 19        -1.4528294776e-17
 20         5.1067764745e-18
 21         3.0254714150e-02
 22         4.0463522707e-02
 23         7.6509659792e-03
 24         3.1707499904e-18
 25         7.6620989190e-17
 26         8.7009859361e-02
 27         1.8380822649e-01
 28        -1.5437109125e-02
 29         2.2662006111e-17
 30        -1.2383318570e-16
 31        -3.3651865796e-01
 32        -6.1744405147e-01
 33         1.4549079833e-02
 34         9.1930826090e-18
 35        -7.6964083656e-17
 36         3.3882017270e-01
 37         6.2006000120e-01
 38         1.4651296693e-02
 39        -5.9266003832e-18
 40         9.4221501698e-17
 41        -8.4791169058e-02
 42        -1.8866071800e-01
 43        -1.5470819600e-02
 44        -1.9507969747e-17
 45        -1.7048477965e-17
 46        -3.5692368143e-02
 47        -2.8273586893e-02
 48         8.2906251749e-03
 49         1.6873559619e-18
 50        -6.0457103704e-17
 Sym= A
 Ene=         6.3215164444e-02
 Spin= Alpha
 Occup=         0.0000000000e+00
  1         3.1924187637e-01
  2         5.9946001055e-01
  3        -1.6525326566e-02
  4         6.0999978716e-17
  5         3.9315360327e-17
  6        -3.2976199369e-01
  7        -6.2056524093e-01
  8        -1.2995332484e-02
  9         4.5264109893e-17
 10        -8.1521153790e-17
 11         8.0801429770e-02
 12         1.8147671226e-01
 13         1.4637321808e-02
 14         1.7510358036e-18
 15        -7.6086910390e-17
 16         3.0344309712e-02
 17         3.7477896349e-02
 18        -7.1647071987e-03
 19         3.9505576135e-18
 20         1.0575061178e-17
 21        -2.7566680621e-03
 22        -2.2325106434e-02
 23         6.9208424792e-04
 24        -5.0138635450e-18
 25        -1.3854903761e-16
 26        -1.9120998517e-02
 27        -1.7627897671e-02
 28        -3.1602918596e-04
 29         4.0885342406e-18
 30         1.4255487312e-16
 31         4.8293408058e-03
 32         4.7266831068e-03
 33         8.8429976460e-04
 34        -4.9888949040e-17
 35        -2.2121356296e-16
 36         6.3929055386e-03
 37         1.0560271665e-02
 38        -3.1962510323e-04
 39        -3.1013845810e-17
 40         1.3006631948e-16
 41        -1.1549245056e-03
 42        -3.4024906701e-03
 43        -2.1848522308e-04
 44        -4.5917372292e-17
 45        -9.0816815243e-17
 46        -3.1686309408e-03
 47        -3.7773158408e-03
 48         8.7890738963e-05
 49         6.6445403101e-19
 50         1.4164316426e-16
 Sym= A
 Ene=         6.5423035201e-01
 Spin= Alpha
 Occup=         0.0000000000e+00
  1         9.1204485376e-01
  2        -9.0758713490e-01
  3         1.1660405687e-02
  4         3.8156026825e-16
  5        -1.1318223893e-16
  6        -2.1322317011e-02
  7         1.7532868530e-01
  8         1.3950413711e-02
  9        -1.0548715459e-16
 10         1.1841399241e-16
 11        -1.6533998004e-01
 12         1.3604951348e-01
 13        -1.8010718775e-02
 14        -1.1285982822e-16
 15        -7.3003426190e-17
 16         9.6038086288e-02
 17        -1.2060084001e-01
 18         4.0437892245e-03
 19        -1.5556164486e-16
 20        -2.1984812369e-17
 21        -1.6612469031e-02
 22         3.3068108847e-02
 23         5.5000377730e-03
 24         1.4631326945e-16
 25         1.5888426715e-16
 26        -1.6612469031e-02
 27         3.3068108847e-02
 28        -5.5000377730e-03
 29         2.2901436763e-17
 30        -1.0703897524e-16
 31         9.6038086287e-02
 32        -1.2060084001e-01
 33        -4.0437892244e-03
 34         3.5109569586e-16
 35        -3.4631988573e-17
 36        -1.6533998004e-01
 37         1.3604951348e-01
 38         1.8010718775e-02
 39         1.1187550749e-16
 40         2.5374062720e-16
 41        -2.1322317010e-02
 42         1.7532868530e-01
 43        -1.3950413711e-02
 44        -6.0980782868e-17
 45        -5.4691514487e-16
 46         9.1204485375e-01
 47        -9.0758713489e-01
 48        -1.1660405687e-02
 49        -1.7583103660e-18
 50        -1.0068308745e-16
 Sym= A
 Ene=         6.5437822175e-01
 Spin= Alpha
 Occup=         0.0000000000e+00
  1         9.1345160847e-01
  2        -9.0791839642e-01
  3         1.1737134613e-02
  4        -4.0022027368e-16
  5         1.7832560629e-17
  6        -1.4080170425e-02
  7         1.6925422975e-01
  8         1.3471251548e-02
  9         9.5700582384e-17
 10        -7.9295371448e-18
 11        -1.6842879158e-01
 12         1.3431353777e-01
 13        -1.7161860378e-02
 14         1.6902102105e-16
 15         5.0102018642e-17
 16         7.6113477159e-02
 17        -9.3870539881e-02
 18         4.6207672494e-03
 19         2.4101641858e-16
 20         3.0947012201e-16
 21         2.8814906011e-02
 22        -6.5776283130e-03
 23         4.6450047626e-04
 24         1.3722280438e-16
 25        -6.6470453011e-18
 26        -2.8814906010e-02
 27         6.5776283127e-03
 28         4.6450047631e-04
 29         1.5555145124e-16
 30        -1.4327210723e-16
 31        -7.6113477160e-02
 32         9.3870539882e-02
 33         4.6207672494e-03
 34         2.1711494256e-16
 35         4.3732009482e-16
 36         1.6842879158e-01
 37        -1.3431353777e-01
 38        -1.7161860378e-02
 39         6.9795042292e-17
 40        -9.6057189657e-17
 41         1.4080170425e-02
 42        -1.6925422975e-01
 43         1.3471251548e-02
 44         2.0251870617e-17
 45        -8.1852602105e-17
 46        -9.1345160847e-01
 47         9.0791839643e-01
 48         1.1737134613e-02
 49        -1.8635723580e-16
 50         4.4325524310e-16
 Sym= A
 Ene=         6.7970218728e-01
 Spin= Alpha
 Occup=         0.0000000000e+00
  1         1.2905784406e-01
  2        -7.5207002799e-02
  3         3.3518024120e-03
  4         2.3325634303e-16
  5        -9.0551715494e-17
  6         3.7832563084e-01
  7        -2.8018989498e-01
  8        -1.0649405509e-02
  9        -1.0869347919e-16
 10        -5.3543712906e-17
 11         3.0001177954e-01
 12        -3.2896582119e-01
 13         2.1923833650e-03
 14        -7.4268242766e-17
 15         1.0098687998e-16
 16        -5.6809315471e-01
 17         4.9909732079e-01
 18         1.9188354260e-02
 19        -9.1144891827e-17
 20         3.0293715855e-17
 21        -5.6351689932e-01
 22         5.4829499674e-01
 23        -1.4659845536e-02
 24         9.9773883267e-17
 25        -1.5330896660e-16
 26         5.6351689932e-01
 27        -5.4829499674e-01
 28        -1.4659845536e-02
 29        -2.0930801078e-16
 30         6.5171836676e-16
 31         5.6809315471e-01
 32        -4.9909732080e-01
 33         1.9188354260e-02
 34         1.4113029651e-16
 35        -2.5603575508e-16
 36        -3.0001177954e-01
 37         3.2896582120e-01
 38         2.1923833650e-03
 39         3.8606881015e-16
 40         2.4251266199e-16
 41        -3.7832563084e-01
 42         2.8018989498e-01
 43        -1.0649405509e-02
 44         1.6806334729e-16
 45         3.6104527267e-16
 46        -1.2905784406e-01
 47         7.5207002799e-02
 48         3.3518024120e-03
 49         7.5860931028e-17
 50        -6.2269563550e-17
 Sym= A
 Ene=         6.8160990180e-01
 Spin= Alpha
 Occup=         0.0000000000e+00
  1         5.0781579994e-02
  2        -2.7358085686e-02
  3         1.1281560366e-03
  4        -2.0139388342e-16
  5         6.1351223248e-17
  6         1.5844588751e-01
  7        -1.2155280847e-01
  8        -5.0678479186e-03
  9         2.6399689530e-16
 10         7.8575049581e-17
 11         8.7316298441e-02
 12        -1.1923922923e-01
 13        -7.3841927170e-04
 14         2.1117274011e-16
 15        -5.8428890359e-17
 16        -4.3386381373e-01
 17         3.2514893289e-01
 18         4.2662533556e-03
 19        -1.4924422358e-16
 20         2.2957944361e-16
 21        -8.2407322834e-01
 22         6.1754933114e-01
 23        -8.0736846648e-04
 24         3.2411357725e-17
 25         2.2129593616e-16
 26        -8.2407322834e-01
 27         6.1754933114e-01
 28         8.0736846644e-04
 29         4.7834961249e-16
 30         1.6981959704e-16
 31        -4.3386381372e-01
 32         3.2514893289e-01
 33        -4.2662533556e-03
 34         3.1499813589e-16
 35         1.7078414546e-16
 36         8.7316298440e-02
 37        -1.1923922923e-01
 38         7.3841927171e-04
 39         7.4763486278e-17
 40         8.1869374140e-18
 41         1.5844588751e-01
 42        -1.2155280847e-01
 43         5.0678479186e-03
 44        -9.5997731073e-17
 45        -1.0762017715e-16
 46         5.0781579993e-02
 47        -2.7358085686e-02
 48        -1.1281560366e-03
 49        -3.3848517011e-16
 50         1.6790792011e-16
 Sym= A
 Ene=         6.8195064233e-01
 Spin= Alpha
 Occup=         0.0000000000e+00
  1         1.0315066911e-01
  2        -4.1163493758e-02
  3         4.0175420012e-03
  4        -1.0860391349e-16
  5        -9.6279726043e-17
  6         4.7136456115e-01
  7        -3.3341798054e-01
  8        -6.5890995687e-03
  9        -2.5369310476e-16
 10        -4.4584863787e-17
 11         7.2183300462e-01
 12        -5.8296950963e-01
 13        -1.1099454539e-03
 14        -2.6275873419e-16
 15         2.6469436989e-16
 16         3.8330959873e-01
 17        -2.7181852445e-01
 18         6.3127200720e-03
 19        -1.6404891043e-17
 20         2.4584541350e-16
 21        -2.1972455558e-02
 22         5.7532892360e-02
 23         1.9476991487e-03
 24         6.3218408747e-17
 25        -1.0582018999e-16
 26        -2.1972455552e-02
 27         5.7532892356e-02
 28        -1.9476991487e-03
 29         8.4836654928e-17
 30         1.8389789282e-17
 31         3.8330959874e-01
 32        -2.7181852446e-01
 33        -6.3127200720e-03
 34        -1.0957663967e-16
 35         1.1049351471e-16
 36         7.2183300464e-01
 37        -5.8296950964e-01
 38         1.1099454539e-03
 39        -1.9993066882e-16
 40        -4.9523975356e-17
 41         4.7136456116e-01
 42        -3.3341798055e-01
 43         6.5890995688e-03
 44        -3.0000953979e-16
 45         1.6404882483e-16
 46         1.0315066911e-01
 47        -4.1163493759e-02
 48        -4.0175420013e-03
 49        -2.3953465781e-16
 50         5.7695603198e-17
 Sym= A
 Ene=         6.8223182587e-01
 Spin= Alpha
 Occup=         0.0000000000e+00
  1         8.5872647552e-02
  2        -2.8213501932e-02
  3         3.0801215064e-03
  4        -1.4521876294e-16
  5        -4.4322179757e-17
  6         4.2968198455e-01
  7        -3.0847315387e-01
  8        -5.1646491301e-03
  9        -2.1607182224e-16
 10        -1.3175850133e-16
 11         6.6759720587e-01
 12        -5.2293267757e-01
 13         5.6471199125e-04
 14        -4.3848409019e-16
 15        -4.1384076765e-16
 16         4.8466284913e-01
 17        -3.4441167559e-01
 18         2.1718986013e-03
 19        -2.7225275954e-16
 20         1.8004999006e-16
 21         1.7621938457e-01
 22        -1.2881773653e-01
 23        -2.0754634000e-03
 24        -3.2842149001e-17
 25        -2.6119843697e-16
 26        -1.7621938457e-01
 27         1.2881773653e-01
 28        -2.0754634000e-03
 29         1.2727164332e-16
 30         8.7075216094e-17
 31        -4.8466284912e-01
 32         3.4441167558e-01
 33         2.1718986011e-03
 34         2.7976867896e-18
 35         2.0258312062e-17
 36        -6.6759720585e-01
 37         5.2293267756e-01
 38         5.6471199131e-04
 39        -7.9925358047e-17
 40        -1.1014788984e-16
 41        -4.2968198454e-01
 42         3.0847315386e-01
 43        -5.1646491299e-03
 44        -3.0697206319e-17
 45        -1.4492528039e-16
 46        -8.5872647549e-02
 47         2.8213501931e-02
 48         3.0801215063e-03
 49         5.0718635539e-17
 50        -7.4809655153e-17
 Sym= A
 Ene=         6.8522627582e-01
 Spin= Alpha
 Occup=         0.0000000000e+00
  1         7.9747695908e-02
  2         3.8777888745e-02
  3        -8.7998501430e-03
  4         3.1166019001e-17
  5         5.0415606949e-17
  6         5.7663315623e-01
  7        -5.7054022401e-01
  8        -1.1446770768e-02
  9         3.4803306559e-16
 10        -6.7219092482e-17
 11        -4.8803690490e-02
 12         2.6923170633e-02
 13         3.3783959751e-02
 14         3.1837055335e-16
 15        -2.9514247229e-16
 16        -5.9549297527e-01
 17         6.5766091326e-01
 18        -1.2891144158e-02
 19         1.3377813696e-18
 20        -3.1963080580e-17
 21         4.2034529848e-01
 22        -4.4750001528e-01
 23        -3.4423493515e-02
 24        -1.0276800084e-17
 25        -8.9074102085e-17
 26         4.2034529848e-01
 27        -4.4750001528e-01
 28         3.4423493515e-02
 29         3.0627942373e-16
 30         4.3598429618e-16
 31        -5.9549297527e-01
 32         6.5766091326e-01
 33         1.2891144158e-02
 34         3.5117865608e-16
 35        -1.5853126645e-16
 36        -4.8803690491e-02
 37         2.6923170633e-02
 38        -3.3783959752e-02
 39         1.1812175172e-16
 40         4.8949059316e-17
 41         5.7663315623e-01
 42        -5.7054022401e-01
 43         1.1446770768e-02
 44         5.3407392055e-18
 45         6.8687156465e-17
 46         7.9747695908e-02
 47         3.8777888745e-02
 48         8.7998501430e-03
 49         1.4331505837e-16
 50         2.2840926842e-16
 Sym= A
 Ene=         7.0089451750e-01
 Spin= Alpha
 Occup=         0.0000000000e+00
  1         5.4335469040e-02
  2        -2.3325347607e-01
  3         2.8542810528e-02
  4        -5.9668516125e-16
  5        -2.6999486937e-16
  6        -6.7806079507e-01
  7         8.1925059434e-01
  8        -9.0532374546e-04
  9         5.0307079656e-17
 10        -1.3494020290e-16
 11         3.7736234768e-01
 12        -4.8602903620e-01
 13        -4.8818710262e-02
 14        -2.6705994725e-17
 15        -5.6061776967e-17
 16         2.2848097537e-01
 17        -2.5630064003e-01
 18         5.8778912578e-02
 19        -1.3140971988e-16
 20        -2.8749647922e-16
 21        -4.6308110091e-01
 22         6.4272498216e-01
 23        -2.2614628149e-02
 24         1.3713700195e-16
 25         5.1659728741e-16
 26         4.6308110091e-01
 27        -6.4272498216e-01
 28        -2.2614628149e-02
 29         2.1661572283e-16
 30        -5.2773065068e-16
 31        -2.2848097537e-01
 32         2.5630064003e-01
 33         5.8778912578e-02
 34         1.0509218788e-16
 35         2.6101351951e-16
 36        -3.7736234768e-01
 37         4.8602903620e-01
 38        -4.8818710262e-02
 39        -2.6903834626e-16
 40        -7.6021123586e-17
 41         6.7806079507e-01
 42        -8.1925059434e-01
 43        -9.0532374547e-04
 44        -9.6312019260e-17
 45        -1.6069387796e-16
 46        -5.4335469040e-02
 47         2.3325347607e-01
 48         2.8542810528e-02
 49         8.6557393067e-17
 50         4.1835896294e-16
 Sym= A
 Ene=         7.5113079173e-01
 Spin= Alpha
 Occup=         0.0000000000e+00
  1         1.4890160566e-01
  2        -3.5484497953e-01
  3         5.7250497828e-02
  4         7.7059701590e-17
  5        -7.5376251193e-17
  6        -5.6272866040e-01
  7         8.5880774372e-01
  8        -4.0106913960e-02
  9        -5.7197290351e-16
 10         2.5178177667e-16
 11         5.7681968634e-01
 12        -9.3121698269e-01
 13        -1.2686504258e-02
 14         1.2693014794e-16
 15        -1.7698803572e-16
 16        -4.3078480188e-01
 17         7.0675410988e-01
 18         5.5040087808e-02
 19         2.1098197676e-16
 20         1.6607404433e-16
 21         1.8775619279e-01
 22        -2.8283747022e-01
 23        -8.5679896909e-02
 24         2.2585500697e-16
 25        -7.8392939440e-17
 26         1.8775619279e-01
 27        -2.8283747022e-01
 28         8.5679896909e-02
 29         1.5407083681e-16
 30        -2.5361193363e-16
 31        -4.3078480188e-01
 32         7.0675410988e-01
 33        -5.5040087808e-02
 34         3.2575375606e-16
 35         1.3654494925e-16
 36         5.7681968634e-01
 37        -9.3121698269e-01
 38         1.2686504258e-02
 39         1.1603535761e-16
 40        -5.2323387475e-16
 41        -5.6272866040e-01
 42         8.5880774372e-01
 43         4.0106913960e-02
 44         1.6367051034e-16
 45         1.0790341498e-16
 46         1.4890160566e-01
 47        -3.5484497953e-01
 48        -5.7250497828e-02
 49         7.2373292340e-17
 50        -2.4786671361e-16
 Sym= A
 Ene=         8.5242268136e-01
 Spin= Alpha
 Occup=         0.0000000000e+00
  1         1.1866512564e-01
  2        -2.8777182723e-01
  3         7.9198672062e-02
  4         4.2837334766e-16
  5         2.1753616796e-16
  6        -3.4291806491e-01
  7         6.3389231059e-01
  8        -8.4900591453e-02
  9        -4.4398860421e-16
 10        -1.1195666908e-16
 11         4.4668479631e-01
 12        -8.6561857029e-01
 13         6.5220330636e-02
 14        -4.1448350481e-16
 15         3.2696419160e-16
 16        -5.4520940326e-01
 17         1.0413015481e+00
 18        -4.4172115536e-02
 19        -5.8929172184e-17
 20        -1.6898778978e-17
 21         5.8454301512e-01
 22        -1.1253660989e+00
 23         1.2229078900e-02
 24         2.2424742579e-16
 25         7.0747883050e-17
 26        -5.8454301512e-01
 27         1.1253660989e+00
 28         1.2229078900e-02
 29        -8.5131353416e-16
 30         1.3030194302e-16
 31         5.4520940326e-01
 32        -1.0413015481e+00
 33        -4.4172115536e-02
 34        -3.5859648634e-17
 35         1.2546548283e-16
 36        -4.4668479631e-01
 37         8.6561857029e-01
 38         6.5220330636e-02
 39        -3.8002792573e-18
 40         2.2407530729e-17
 41         3.4291806491e-01
 42        -6.3389231059e-01
 43        -8.4900591453e-02
 44        -2.8199816850e-16
 45         6.9808844129e-17
 46        -1.1866512564e-01
 47         2.8777182723e-01
 48         7.9198672062e-02
 49         1.4814683742e-16
 50        -9.3979584415e-16
 Sym= A
 Ene=         1.2076533141e+00
 Spin= Alpha
 Occup=         0.0000000000e+00
  1         5.2193677754e-02
  2        -1.2663848219e-01
  3         2.2065345599e-01
  4         1.4750404391e-15
  5        -8.1738384256e-16
  6        -6.8288593239e-02
  7         1.4497660557e-01
  8        -2.8890081213e-01
  9         1.1625842617e-15
 10        -4.9301087627e-16
 11         4.7778033585e-02
 12        -1.1301858851e-01
 13         3.1761426503e-01
 14         1.5032517431e-16
 15         6.8838169795e-16
 16        -3.0257072690e-02
 17         6.7798274140e-02
 18        -3.3065048893e-01
 19        -4.9751879432e-16
 20        -9.0347540744e-16
 21         8.8333037184e-03
 22        -2.3897677489e-02
 23         3.3817689861e-01
 24        -9.1709683697e-16
 25         2.3228669240e-16
 26         8.8333037184e-03
 27        -2.3897677489e-02
 28        -3.3817689861e-01
 29        -7.6137140076e-16
 30        -2.7426642373e-16
 31        -3.0257072690e-02
 32         6.7798274140e-02
 33         3.3065048893e-01
 34        -1.9530501992e-16
 35        -4.5514212049e-17
 36         4.7778033585e-02
 37        -1.1301858851e-01
 38        -3.1761426503e-01
 39         2.8224612255e-16
 40         2.2036101140e-16
 41        -6.8288593239e-02
 42         1.4497660557e-01
 43         2.8890081213e-01
 44         2.4770899106e-17
 45        -8.1238121967e-16
 46         5.2193677754e-02
 47        -1.2663848219e-01
 48        -2.2065345599e-01
 49        -1.2249405569e-15
 50        -6.3605150756e-16
 Sym= A
 Ene=         1.3145326528e+00
 Spin= Alpha
 Occup=         0.0000000000e+00
  1         2.7456421576e-02
  2        -5.0215061665e-02
  3         3.2344747344e-01
  4        -5.2184057216e-15
  5         1.6402383338e-15
  6         3.3508109455e-02
  7        -9.6402684695e-02
  8        -3.9976258503e-01
  9         1.9522305907e-15
 10        -1.6806940324e-15
 11        -1.2361368406e-01
 12         2.9494357835e-01
 13         3.5800049519e-01
 14         9.3060227423e-16
 15        -2.8066748501e-15
 16         1.9736661005e-01
 17        -4.6521079918e-01
 18        -2.4238940307e-01
 19        -4.1540384705e-15
 20         7.0047156035e-16
 21        -2.3591919400e-01
 22         5.5556119884e-01
 23         8.4883133962e-02
 24        -9.9386232743e-16
 25         2.9363989828e-15
 26         2.3591919400e-01
 27        -5.5556119884e-01
 28         8.4883133962e-02
 29        -5.8656765012e-16
 30         1.1264618298e-15
 31        -1.9736661005e-01
 32         4.6521079918e-01
 33        -2.4238940307e-01
 34         7.8970880665e-16
 35         1.5889542676e-15
 36         1.2361368406e-01
 37        -2.9494357835e-01
 38         3.5800049519e-01
 39         6.4837169407e-16
 40         2.8769826294e-15
 41        -3.3508109455e-02
 42         9.6402684695e-02
 43        -3.9976258503e-01
 44        -2.2902934620e-15
 45         3.2274000544e-15
 46        -2.7456421576e-02
 47         5.0215061665e-02
 48         3.2344747344e-01
 49        -8.8678098799e-16
 50         1.1238880214e-15
 Sym= A
 Ene=         1.4201692335e+00
 Spin= Alpha
 Occup=         0.0000000000e+00
  1         1.0789787572e-02
  2        -5.1962496784e-02
  3        -3.5696433004e-01
  4         2.7687495319e-15
  5        -5.8379582777e-15
  6        -1.2899937392e-01
  7         3.0834539934e-01
  8         3.5683847059e-01
  9         4.3403281024e-15
 10        -1.5449237924e-14
 11         2.1398726000e-01
 12        -4.9106701293e-01
 13        -1.1005663285e-01
 14         1.1284812843e-14
 15        -2.6681530279e-14
 16        -1.9704105522e-01
 17         4.4840503294e-01
 18        -2.0602724517e-01
 19         1.6368314269e-14
 20        -3.4858784252e-14
 21         8.1680225960e-02
 22        -1.8312426407e-01
 23         4.2831379188e-01
 24         2.8537128844e-14
 25        -4.0314950285e-14
 26         8.1680225960e-02
 27        -1.8312426407e-01
 28        -4.2831379188e-01
 29         3.6960985485e-14
 30        -4.3612231218e-14
 31        -1.9704105522e-01
 32         4.4840503294e-01
 33         2.0602724517e-01
 34         4.1642952055e-14
 35        -4.3691068411e-14
 36         2.1398726000e-01
 37        -4.9106701293e-01
 38         1.1005663285e-01
 39         2.7998721441e-14
 40        -3.3774499668e-14
 41        -1.2899937392e-01
 42         3.0834539934e-01
 43        -3.5683847059e-01
 44         5.2840582664e-15
 45        -2.1878969427e-14
 46         1.0789787572e-02
 47        -5.1962496784e-02
 48         3.5696433004e-01
 49         3.9966083854e-15
 50        -1.4084847804e-14
 Sym= A
 Ene=         1.4254930959e+00
 Spin= Alpha
 Occup=         0.0000000000e+00
  1        -1.5064805311e-15
  2         3.8769806054e-15
  3         2.3099467499e-14
  4         1.1670160178e-01
  5         5.0355353473e-03
  6         7.3982467343e-15
  7        -1.8675926878e-14
  8        -2.1949975803e-14
  9         2.0540037511e-01
 10         8.8627819448e-03
 11        -1.2432105006e-14
 12         3.0138131159e-14
 13         9.7012870480e-15
 14         3.2012608339e-01
 15         1.3813059837e-02
 16         1.4501726525e-14
 17        -3.0925515278e-14
 18         1.0645276503e-14
 19         3.8458958244e-01
 20         1.6594583168e-02
 21        -5.0172890539e-15
 22         1.2476357029e-14
 23        -2.8628792170e-14
 24         4.3314083451e-01
 25         1.8689511963e-02
 26        -5.5382321882e-15
 27         1.1622443384e-14
 28         2.5849789498e-14
 29         4.3314083451e-01
 30         1.8689511963e-02
 31         1.3196645416e-14
 32        -2.8676094209e-14
 33        -1.2642033204e-14
 34         3.8458958244e-01
 35         1.6594583168e-02
 36        -1.4325869307e-14
 37         3.1743744824e-14
 38        -3.8559227580e-15
 39         3.2012608339e-01
 40         1.3813059837e-02
 41         8.6061685099e-15
 42        -2.0312657171e-14
 43         2.3096580828e-14
 44         2.0540037511e-01
 45         8.8627819449e-03
 46        -5.5777473115e-16
 47         3.6937543231e-15
 48        -2.2149714910e-14
 49         1.1670160178e-01
 50         5.0355353473e-03
 Sym= A
 Ene=         1.4254930959e+00
 Spin= Alpha
 Occup=         0.0000000000e+00
  1         1.7593029102e-16
  2        -4.4143388305e-15
  3        -3.5320120359e-14
  4        -5.0355353473e-03
  5         1.1670160178e-01
  6        -1.3035019944e-14
  7         3.1179982824e-14
  8         3.7854834992e-14
  9        -8.8627819449e-03
 10         2.0540037511e-01
 11         2.1998103797e-14
 12        -5.0855676838e-14
 13        -1.3820996309e-14
 14        -1.3813059837e-02
 15         3.2012608339e-01
 16        -2.0686759845e-14
 17         4.7342894233e-14
 18        -1.9795040143e-14
 19        -1.6594583168e-02
 20         3.8458958244e-01
 21         9.5949193129e-15
 22        -2.0265899140e-14
 23         4.5886477407e-14
 24        -1.8689511963e-02
 25         4.3314083451e-01
 26         8.5500442456e-15
 27        -1.9085271121e-14
 28        -4.4128359588e-14
 29        -1.8689511963e-02
 30         4.3314083451e-01
 31        -1.9901691697e-14
 32         4.4968142907e-14
 33         1.7443206122e-14
 34        -1.6594583168e-02
 35         3.8458958244e-01
 36         1.9991369496e-14
 37        -4.6633819222e-14
 38         1.0551271466e-14
 39        -1.3813059837e-02
 40         3.2012608339e-01
 41        -1.2623118253e-14
 42         2.9706753279e-14
 43        -3.2143390365e-14
 44        -8.8627819449e-03
 45         2.0540037511e-01
 46         1.4397412651e-15
 47        -5.6757226575e-15
 48         3.2709374924e-14
 49        -5.0355353473e-03
 50         1.1670160178e-01
 Sym= A
 Ene=         1.4311934671e+00
 Spin= Alpha
 Occup=         0.0000000000e+00
  1         9.5980085947e-16
  2        -2.0178335080e-15
  3        -7.9258674545e-15
  4         2.3804229267e-01
  5         1.0490345318e-03
  6        -1.9849386176e-15
  7         5.1979944424e-15
  8         2.3971925535e-15
  9         3.6092157352e-01
 10         1.5905543072e-03
 11         3.7412753011e-15
 12        -8.0520048508e-15
 13        -2.8907609333e-15
 14         4.2894696777e-01
 15         1.8903371181e-03
 16        -3.7049393351e-15
 17         8.2579969232e-15
 18        -6.9403617455e-16
 19         3.3233519356e-01
 20         1.4645762746e-03
 21         1.5581692889e-15
 22        -3.4236262726e-15
 23         8.3302351806e-15
 24         1.1831669240e-01
 25         5.2141279025e-04
 26         2.2957449853e-15
 27        -4.6357229597e-15
 28        -9.3197958972e-15
 29        -1.1831669240e-01
 30        -5.2141279024e-04
 31        -4.2293546007e-15
 32         9.0529179355e-15
 33         1.0829218448e-15
 34        -3.3233519356e-01
 35        -1.4645762746e-03
 36         2.7907316204e-15
 37        -8.1550161263e-15
 38         2.7487758564e-15
 39        -4.2894696777e-01
 40        -1.8903371181e-03
 41        -3.1477009870e-15
 42         6.3912384674e-15
 43        -5.5616636104e-15
 44        -3.6092157352e-01
 45        -1.5905543072e-03
 46         4.9588334178e-16
 47        -1.5418567153e-15
 48         7.8687430232e-15
 49        -2.3804229267e-01
 50        -1.0490345319e-03
 Sym= A
 Ene=         1.4311934671e+00
 Spin= Alpha
 Occup=         0.0000000000e+00
  1        -1.1375288746e-17
  2         3.2775135899e-16
  3         4.4519162752e-15
  4        -1.0490345318e-03
  5         2.3804229267e-01
  6         1.5888528084e-15
  7        -2.9878150707e-15
  8        -3.3151788077e-15
  9        -1.5905543072e-03
 10         3.6092157352e-01
 11        -2.0228918910e-15
 12         4.7587534591e-15
 13         3.1046274808e-15
 14        -1.8903371181e-03
 15         4.2894696777e-01
 16         2.7930059112e-15
 17        -6.6398323260e-15
 18        -2.1857379767e-15
 19        -1.4645762745e-03
 20         3.3233519356e-01
 21        -2.9480017940e-15
 22         6.8654308337e-15
 23        -2.2212846792e-15
 24        -5.2141279021e-04
 25         1.1831669240e-01
 26         2.0258229930e-15
 27        -3.7255957125e-15
 28         6.4006795646e-15
 29         5.2141279027e-04
 30        -1.1831669240e-01
 31         7.7163135407e-16
 32        -2.3119634016e-15
 33        -6.6544187586e-15
 34         1.4645762746e-03
 35        -3.3233519356e-01
 36        -3.1002689176e-15
 37         6.6925370782e-15
 38         2.7796401943e-15
 39         1.8903371181e-03
 40        -4.2894696777e-01
 41         2.9679358949e-15
 42        -6.4078377850e-15
 43         3.3360504186e-15
 44         1.5905543072e-03
 45        -3.6092157352e-01
 46        -9.9837151497e-16
 47         2.3686217150e-15
 48        -5.9895997049e-15
 49         1.0490345318e-03
 50        -2.3804229267e-01
 Sym= A
 Ene=         1.4394450670e+00
 Spin= Alpha
 Occup=         0.0000000000e+00
  1        -5.1898606983e-16
  2         1.3411925538e-15
  3         4.3836990612e-15
  4        -3.4839689409e-01
  5         1.4897646901e-02
  6         1.4147364654e-15
  7        -4.0212625163e-15
  8        -3.9621890288e-15
  9        -4.0601481138e-01
 10         1.7361421410e-02
 11        -3.9513439376e-15
 12         7.6581987824e-15
 13         4.2871453243e-15
 14        -2.3579496747e-01
 15         1.0082725265e-02
 16         1.7317066828e-15
 17        -5.4582605594e-15
 18         2.9721217630e-15
 19         8.8997528609e-02
 20        -3.8055843171e-03
 21        -7.8188832812e-16
 22         1.7517483834e-15
 23        -5.0741476154e-15
 24         3.8176880800e-01
 25        -1.6324648686e-02
 26        -5.5490218960e-16
 27         2.3928124585e-15
 28         5.6775135706e-15
 29         3.8176880800e-01
 30        -1.6324648686e-02
 31         3.9356290261e-15
 32        -8.2708296475e-15
 33        -5.1224462341e-15
 34         8.8997528610e-02
 35        -3.8055843171e-03
 36        -4.6208054181e-15
 37         9.7184902617e-15
 38        -3.4426038593e-15
 39        -2.3579496747e-01
 40         1.0082725265e-02
 41         1.3960087857e-15
 42        -4.3870389294e-15
 43         7.4467173486e-15
 44        -4.0601481138e-01
 45         1.7361421410e-02
 46         4.2027603718e-16
 47         4.2494514470e-17
 48        -5.7933792551e-15
 49        -3.4839689409e-01
 50         1.4897646901e-02
 Sym= A
 Ene=         1.4394450670e+00
 Spin= Alpha
 Occup=         0.0000000000e+00
  1         8.4205474675e-16
  2        -1.6473668448e-15
  3        -3.6217750574e-15
  4         1.4897646901e-02
  5         3.4839689409e-01
  6        -1.7501830570e-15
  7         3.3576813394e-15
  8        -1.5510633230e-16
  9         1.7361421410e-02
 10         4.0601481138e-01
 11         1.2148009894e-15
 12        -2.2276963121e-15
 13         3.1965567177e-15
 14         1.0082725265e-02
 15         2.3579496747e-01
 16         3.9857794835e-16
 17        -6.5085106715e-16
 18        -2.9226863262e-15
 19        -3.8055843171e-03
 20        -8.8997528610e-02
 21        -1.0691843698e-15
 22         2.2848471303e-15
 23         7.3180198496e-16
 24        -1.6324648686e-02
 25        -3.8176880800e-01
 26         1.1618910180e-15
 27        -2.2982358769e-15
 28         5.4619555250e-16
 29        -1.6324648686e-02
 30        -3.8176880800e-01
 31        -1.1644045833e-16
 32         4.8845399159e-18
 33        -4.1566514118e-15
 34        -3.8055843171e-03
 35        -8.8997528609e-02
 36        -2.2061602792e-15
 37         4.2985979059e-15
 38         3.3621071213e-15
 39         1.0082725265e-02
 40         2.3579496747e-01
 41         2.2272598617e-15
 42        -4.5307952932e-15
 43         2.3289636295e-15
 44         1.7361421410e-02
 45         4.0601481138e-01
 46        -4.0389958300e-16
 47         1.1310177806e-15
 48        -5.3602231948e-15
 49         1.4897646901e-02
 50         3.4839689409e-01
 Sym= A
 Ene=         1.4496421446e+00
 Spin= Alpha
 Occup=         0.0000000000e+00
  1         8.2959557641e-16
  2        -1.3470852731e-15
  3        -4.5546901041e-15
  4        -4.2809664723e-01
  5         4.6088246833e-03
  6        -1.1124372180e-15
  7         4.3167705395e-15
  8         4.8415932610e-15
  9        -3.1474126006e-01
 10         3.3884574841e-03
 11         3.2644325235e-15
 12        -7.0681309306e-15
 13         2.5309643065e-16
 14         1.4240614822e-01
 15        -1.5331233617e-03
 16        -2.7701262758e-15
 17         5.3348981784e-15
 18        -6.9672347402e-15
 19         3.9308651965e-01
 20        -4.2319108691e-03
 21        -7.9023738325e-16
 22         6.4023383299e-17
 23         6.2100260714e-15
 24         2.0134559580e-01
 25        -2.1676566677e-03
 26         9.3527169684e-16
 27        -2.6087424745e-15
 28        -4.0579676973e-15
 29        -2.0134559580e-01
 30         2.1676566677e-03
 31        -3.3568801498e-15
 32         6.4261628164e-15
 33         4.3732060864e-15
 34        -3.9308651965e-01
 35         4.2319108691e-03
 36         2.7390619349e-15
 37        -6.2741391962e-15
 38         3.5211853348e-15
 39        -1.4240614822e-01
 40         1.5331233617e-03
 41        -1.1681322752e-15
 42         3.6946977898e-15
 43        -3.3202205023e-15
 44         3.1474126006e-01
 45        -3.3884574841e-03
 46         9.7172440966e-16
 47        -1.7074020415e-15
 48         4.5092192123e-15
 49         4.2809664723e-01
 50        -4.6088246833e-03
 Sym= A
 Ene=         1.4496421446e+00
 Spin= Alpha
 Occup=         0.0000000000e+00
  1         6.8574607019e-16
  2        -1.1930746575e-15
  3        -4.1415172119e-15
  4         4.6088246833e-03
  5         4.2809664723e-01
  6        -1.0764491891e-15
  7         2.7582063223e-15
  8         1.4271914352e-15
  9         3.3884574841e-03
 10         3.1474126006e-01
 11         1.4046545613e-15
 12        -2.2771792520e-15
 13         2.9540714327e-15
 14        -1.5331233617e-03
 15        -1.4240614822e-01
 16         1.0285203455e-15
 17        -2.0817349157e-15
 18        -4.7073634046e-15
 19        -4.2319108691e-03
 20        -3.9308651965e-01
 21        -2.4580035222e-15
 22         4.7537423541e-15
 23         1.0079148177e-15
 24        -2.1676566677e-03
 25        -2.0134559580e-01
 26         1.7203797721e-15
 27        -3.6897159034e-15
 28         3.8633311180e-15
 29         2.1676566677e-03
 30         2.0134559580e-01
 31        -4.0538683261e-16
 32         7.6357609574e-16
 33        -3.2332243093e-15
 34         4.2319108691e-03
 35         3.9308651965e-01
 36        -1.2654472279e-15
 37         2.2083501460e-15
 38         1.7650877288e-15
 39         1.5331233617e-03
 40         1.4240614822e-01
 41         1.3985274811e-15
 42        -2.8179794209e-15
 43         1.7584732297e-15
 44        -3.3884574841e-03
 45        -3.1474126006e-01
 46        -4.6210605276e-16
 47         1.0723325974e-15
 48        -2.7211164664e-15
 49        -4.6088246833e-03
 50        -4.2809664723e-01
 Sym= A
 Ene=         1.4600406173e+00
 Spin= Alpha
 Occup=         0.0000000000e+00
  1        -2.0932868808e-16
  2         2.1640673128e-16
  3        -9.2933351903e-16
  4        -4.0659575785e-01
  5         7.9661456516e-02
  6        -4.4892569225e-17
  7         3.3221786937e-16
  8         1.8634888727e-16
  9        -1.2198816550e-01
 10         2.3900286104e-02
 11         4.9403280120e-16
 12        -3.8746477958e-16
 13        -2.7242336273e-16
 14         3.8090743293e-01
 15        -7.4628523095e-02
 16         3.5865106207e-16
 17        -1.2755096052e-16
 18         1.2762678973e-15
 19         2.3118306884e-01
 20        -4.5294078037e-02
 21         6.8693737998e-16
 22        -1.2054491665e-15
 23        -6.2917861957e-16
 24        -3.1940449833e-01
 25         6.2578684267e-02
 26        -8.6786491950e-16
 27         2.2726921710e-15
 28         2.1293897789e-15
 29        -3.1940449833e-01
 30         6.2578684267e-02
 31         1.6677750176e-15
 32        -4.1086260862e-15
 33        -1.1002224886e-15
 34         2.3118306884e-01
 35        -4.5294078037e-02
 36        -2.3603439458e-15
 37         5.0585188496e-15
 38        -1.6847388813e-16
 39         3.8090743293e-01
 40        -7.4628523095e-02
 41         1.0709124804e-15
 42        -2.9443510620e-15
 43         3.6007945384e-15
 44        -1.2198816550e-01
 45         2.3900286104e-02
 46         7.7570220960e-16
 47        -4.6338549979e-16
 48        -3.9348683785e-15
 49        -4.0659575785e-01
 50         7.9661456516e-02
 Sym= A
 Ene=         1.4600406173e+00
 Spin= Alpha
 Occup=         0.0000000000e+00
  1         5.9178182728e-16
  2        -5.0637497202e-16
  3         2.0868524966e-15
  4         7.9661456516e-02
  5         4.0659575785e-01
  6         3.6215400412e-16
  7        -8.9294396156e-16
  8        -1.3313601879e-15
  9         2.3900286104e-02
 10         1.2198816550e-01
 11        -5.8454546545e-17
 12         5.6513252076e-16
 13        -1.6321372321e-15
 14        -7.4628523095e-02
 15        -3.8090743293e-01
 16        -6.6143127285e-17
 17         4.2826071034e-16
 18         2.0009576468e-15
 19        -4.5294078037e-02
 20        -2.3118306884e-01
 21         9.6507237449e-16
 22        -2.5681515849e-15
 23        -3.0684564364e-15
 24         6.2578684267e-02
 25         3.1940449833e-01
 26        -2.0893768055e-15
 27         4.1717975132e-15
 28        -1.6461412517e-15
 29         6.2578684267e-02
 30         3.1940449833e-01
 31         9.7047708792e-16
 32        -2.4547918883e-15
 33         3.5621886346e-15
 34        -4.5294078037e-02
 35        -2.3118306884e-01
 36         6.0635417961e-16
 37        -1.3373585059e-15
 38        -3.0942876773e-15
 39        -7.4628523095e-02
 40        -3.8090743293e-01
 41        -1.4221864652e-15
 42         2.6458018706e-15
 43        -1.2911560570e-15
 44         2.3900286104e-02
 45         1.2198816550e-01
 46         4.9263973045e-16
 47        -7.5972002196e-16
 48         1.0964995225e-15
 49         7.9661456516e-02
 50         4.0659575785e-01
 Sym= A
 Ene=         1.4759767662e+00
 Spin= Alpha
 Occup=         0.0000000000e+00
  1         5.0444289708e-16
  2        -1.3314404359e-15
  3        -5.1128479376e-15
  4         5.9623364816e-02
  5         3.6836370686e-01
  6        -1.5374679398e-15
  7         3.3765205070e-15
  8         8.7284719249e-16
  9        -2.1599180875e-02
 10        -1.3344356456e-01
 11         3.7518817146e-16
 12        -1.2907694601e-15
 13         4.1899992001e-15
 14        -6.2473556408e-02
 15        -3.8597269526e-01
 16         1.2698903996e-15
 17        -2.3393189594e-15
 18        -2.1185331033e-15
 19         4.1456047427e-02
 20         2.5612280268e-01
 21        -1.4109761946e-15
 22         2.1679364334e-15
 23        -3.2824444100e-15
 24         5.6050280861e-02
 25         3.4628856140e-01
 26        -3.6082756852e-16
 27         1.3467692049e-15
 28         3.6056060333e-15
 29        -5.6050280861e-02
 30        -3.4628856140e-01
 31         1.7526505969e-15
 32        -3.2547108886e-15
 33        -1.1630323614e-16
 34        -4.1456047427e-02
 35        -2.5612280268e-01
 36        -6.0278447570e-16
 37         1.8617372896e-15
 38        -4.0576821783e-15
 39         6.2473556408e-02
 40         3.8597269526e-01
 41         5.3286248894e-17
 42         1.6441667556e-16
 43         3.8950518095e-15
 44         2.1599180875e-02
 45         1.3344356456e-01
 46        -2.3261077073e-16
 47        -5.6000024934e-16
 48         7.2328376281e-16
 49        -5.9623364816e-02
 50        -3.6836370686e-01
 Sym= A
 Ene=         1.4759767662e+00
 Spin= Alpha
 Occup=         0.0000000000e+00
  1         6.9449429400e-16
  2        -1.2096796498e-15
  3        -4.5429377668e-15
  4        -3.6836370686e-01
  5         5.9623364816e-02
  6        -1.9486115881e-15
  7         4.3797756818e-15
  8         3.3387379317e-15
  9         1.3344356456e-01
 10        -2.1599180875e-02
 11         2.4073559881e-15
 12        -5.1878763922e-15
 13         1.7286342748e-15
 14         3.8597269526e-01
 15        -6.2473556408e-02
 16        -9.8404723508e-16
 17         2.5853011355e-15
 18        -3.8305861159e-15
 19        -2.5612280268e-01
 20         4.1456047427e-02
 21        -2.0626888343e-16
 22         3.8232939718e-16
 23         3.1132834977e-15
 24        -3.4628856140e-01
 25         5.6050280861e-02
 26         7.5202312112e-16
 27        -1.0283603889e-15
 28         2.4610407928e-15
 29         3.4628856140e-01
 30        -5.6050280861e-02
 31         2.9281169740e-15
 32        -4.5487690188e-15
 33        -6.4373331547e-15
 34         2.5612280268e-01
 35        -4.1456047427e-02
 36        -4.0019811509e-15
 37         9.1295850228e-15
 38         5.1373815041e-15
 39        -3.8597269526e-01
 40         6.2473556408e-02
 41         3.0196933919e-15
 42        -8.2945399818e-15
 43         6.7995316342e-15
 44        -1.3344356456e-01
 45         2.1599180875e-02
 46        -4.6807262752e-16
 47         2.1101579554e-15
 48        -1.1883084691e-14
 49         3.6836370686e-01
 50        -5.9623364816e-02
 Sym= A
 Ene=         1.4887682499e+00
 Spin= Alpha
 Occup=         0.0000000000e+00
  1        -1.8809427803e-15
  2         5.6090928191e-15
  3         1.9701119045e-14
  4         3.6515207836e-01
  5         2.0498925445e-02
  6         8.0104577705e-15
  7        -1.8557986752e-14
  8        -1.2776958899e-14
  9        -3.2594905623e-01
 10        -1.8298144249e-02
 11        -9.0630200742e-15
 12         1.9889906063e-14
 13        -6.9032671263e-15
 14        -1.5856134889e-01
 15        -8.9013248509e-03
 16         2.5406440538e-15
 17        -5.8495367777e-15
 18         2.1029956054e-14
 19         4.3620964979e-01
 20         2.4487958907e-02
 21         4.0359506233e-15
 22        -9.3756946340e-15
 23        -1.2303487354e-14
 24        -2.1384664802e-01
 25        -1.2004933709e-02
 26        -6.4708780380e-15
 27         1.3171504988e-14
 28        -6.6335371388e-15
 29        -2.1384664802e-01
 30        -1.2004933709e-02
 31        -3.2007822665e-16
 32         3.4013368607e-16
 33         2.0130290781e-14
 34         4.3620964979e-01
 35         2.4487958907e-02
 36         7.0382483795e-15
 37        -1.5396244053e-14
 38        -1.2197177073e-14
 39        -1.5856134890e-01
 40        -8.9013248509e-03
 41        -7.0659259296e-15
 42         1.7087533012e-14
 43        -8.7539615140e-15
 44        -3.2594905623e-01
 45        -1.8298144249e-02
 46         1.4155400363e-15
 47        -5.1615418249e-15
 48         2.0011040793e-14
 49         3.6515207836e-01
 50         2.0498925445e-02
 Sym= A
 Ene=         1.4887682499e+00
 Spin= Alpha
 Occup=         0.0000000000e+00
  1        -1.2720786332e-15
  2         2.6352101461e-15
  3         6.4688853323e-15
  4        -2.0498925445e-02
  5         3.6515207836e-01
  6         3.2863389793e-15
  7        -7.3070503787e-15
  8        -5.4019741061e-15
  9         1.8298144249e-02
 10        -3.2594905623e-01
 11        -3.5953686539e-15
 12         7.6440002279e-15
 13        -3.0563834607e-15
 14         8.9013248509e-03
 15        -1.5856134890e-01
 16        -6.8430507572e-16
 17         4.4274289248e-16
 18         1.1295000310e-14
 19        -2.4487958907e-02
 20         4.3620964979e-01
 21         4.4240141555e-15
 22        -9.3996196958e-15
 23        -9.0516632972e-15
 24         1.2004933709e-02
 25        -2.1384664802e-01
 26        -5.0042755206e-15
 27         1.1051434183e-14
 28        -5.6196051258e-15
 29         1.2004933709e-02
 30        -2.1384664802e-01
 31         1.6105295091e-15
 32        -2.4723795086e-15
 33         1.5597309355e-14
 34        -2.4487958907e-02
 35         4.3620964979e-01
 36         4.7526303977e-15
 37        -1.0830005708e-14
 38        -1.1859773707e-14
 39         8.9013248509e-03
 40        -1.5856134890e-01
 41        -6.7009075945e-15
 42         1.4255832931e-14
 43        -7.4804158967e-15
 44         1.8298144249e-02
 45        -3.2594905623e-01
 46         2.4748203731e-15
 47        -5.3201194838e-15
 48         1.4485563861e-14
 49        -2.0498925445e-02
 50         3.6515207836e-01
 Sym= A
 Ene=         1.4986945392e+00
 Spin= Alpha
 Occup=         0.0000000000e+00
  1         3.6494387014e-02
  2        -1.0868207435e-01
  3        -3.7950945033e-01
  4        -5.6092550947e-14
  5        -1.4348896111e-13
  6        -1.6087247453e-01
  7         3.5862705746e-01
  8         2.2695861531e-01
  9         9.9403268189e-14
 10         1.7374706661e-13
 11         1.5875056009e-01
 12        -3.4284318796e-01
 13         2.3334467674e-01
 14        -7.3590358757e-14
 15        -8.1010621685e-14
 16         3.3002674221e-04
 17         4.7606573967e-03
 18        -4.6603088044e-01
 19         3.5446866419e-15
 20        -7.6803461312e-14
 21        -1.5039306974e-01
 22         3.2240228526e-01
 23         2.3059427948e-01
 24         7.8519943402e-14
 25         2.0892922184e-13
 26         1.5039306974e-01
 27        -3.2240228526e-01
 28         2.3059427948e-01
 29        -1.0576213488e-13
 30        -2.1092459191e-13
 31        -3.3002674222e-04
 32        -4.7606573967e-03
 33        -4.6603088044e-01
 34         5.4835094385e-14
 35         9.1928173809e-14
 36        -1.5875056009e-01
 37         3.4284318796e-01
 38         2.3334467674e-01
 39         2.6900754922e-14
 40         7.2788840627e-14
 41         1.6087247453e-01
 42        -3.5862705746e-01
 43         2.2695861531e-01
 44        -9.6512662381e-14
 45        -2.1467646548e-13
 46        -3.6494387014e-02
 47         1.0868207435e-01
 48        -3.7950945033e-01
 49         7.5596690488e-14
 50         1.7159469443e-13
 Sym= A
 Ene=         1.4997472666e+00
 Spin= Alpha
 Occup=         0.0000000000e+00
  1         9.6536178222e-15
  2        -2.8005851431e-14
  3        -9.5851103477e-14
  4         3.1923676708e-01
  5         1.9054585682e-02
  6        -4.0718752130e-14
  7         9.0584205333e-14
  8         5.5396287912e-14
  9        -4.3042436640e-01
 10        -2.5691144677e-02
 11         4.0330907433e-14
 12        -8.6973301039e-14
 13         5.7244492051e-14
 14         1.8769382783e-01
 15         1.1203058335e-02
 16        -4.5533079205e-16
 17         2.1224777072e-15
 18        -1.1912719070e-13
 19         1.3975690626e-01
 20         8.3418021343e-03
 21        -3.8557692987e-14
 22         8.3154658149e-14
 23         6.3075063881e-14
 24        -3.9991439393e-01
 25        -2.3870067205e-02
 26         3.9861437006e-14
 27        -8.5386614470e-14
 28         5.8236449739e-14
 29         3.9991439393e-01
 30         2.3870067205e-02
 31        -1.3611191923e-15
 32         1.5789909499e-15
 33        -1.1993577954e-13
 34        -1.3975690626e-01
 35        -8.3418021343e-03
 36        -3.9889825960e-14
 37         8.5788205971e-14
 38         6.0654769084e-14
 39        -1.8769382783e-01
 40        -1.1203058335e-02
 41         4.1084386949e-14
 42        -9.1182479383e-14
 43         5.4359361076e-14
 44         4.3042436640e-01
 45         2.5691144677e-02
 46        -9.5066328126e-15
 47         2.8367383806e-14
 48        -9.3917277839e-14
 49        -3.1923676708e-01
 50        -1.9054585682e-02
 Sym= A
 Ene=         1.4997472666e+00
 Spin= Alpha
 Occup=         0.0000000000e+00
  1         1.8007577395e-14
  2        -5.2016118102e-14
  3        -1.7817147873e-13
  4        -1.9054585682e-02
  5         3.1923676708e-01
  6        -7.6384707562e-14
  7         1.6967202226e-13
  8         1.0801545695e-13
  9         2.5691144677e-02
 10        -4.3042436640e-01
 11         7.4521343602e-14
 12        -1.6106937888e-13
 13         1.1079396980e-13
 14        -1.1203058335e-02
 15         1.8769382783e-01
 16         1.4906919356e-15
 17         1.7126960168e-16
 18        -2.2103032287e-13
 19        -8.3418021343e-03
 20         1.3975690626e-01
 21        -7.2209106235e-14
 22         1.5425026340e-13
 23         1.0725481342e-13
 24         2.3870067205e-02
 25        -3.9991439393e-01
 26         7.0759854230e-14
 27        -1.5187200917e-13
 28         1.1140071590e-13
 29        -2.3870067205e-02
 30         3.9991439393e-01
 31        -2.3544412688e-16
 32        -3.0530214701e-15
 33        -2.1907792574e-13
 34         8.3418021343e-03
 35        -1.3975690626e-01
 36        -7.5033000808e-14
 37         1.6213505403e-13
 38         1.0750426989e-13
 39         1.1203058335e-02
 40        -1.8769382783e-01
 41         7.6148304611e-14
 42        -1.6878342269e-13
 43         1.0826278456e-13
 44        -2.5691144677e-02
 45         4.3042436640e-01
 46        -1.6560495982e-14
 47         5.0373819713e-14
 48        -1.7796651737e-13
 49         1.9054585682e-02
 50        -3.1923676708e-01
 Sym= A
 Ene=         1.5081009045e+00
 Spin= Alpha
 Occup=         0.0000000000e+00
  1        -1.5193076243e-15
  2         4.4744566548e-15
  3         1.4695854105e-14
  4        -2.4348676283e-01
  5         7.7709968685e-03
  6         6.4045078978e-15
  7        -1.3844180521e-14
  8        -8.5185110484e-15
  9         4.1280754781e-01
 10        -1.3174950967e-02
 11        -5.3450241158e-15
 12         1.1581537727e-14
 13        -1.1425623927e-14
 14        -4.0695080191e-01
 15         1.2988030111e-02
 16        -1.7287955352e-15
 17         3.1087531203e-15
 18         1.8460815252e-14
 19         3.1214791102e-01
 20        -9.9623503589e-03
 21         6.7439041575e-15
 22        -1.4242571713e-14
 23        -5.5522495084e-15
 24        -1.0703002114e-01
 25         3.4159144810e-03
 26        -4.8647857208e-15
 27         1.0780359578e-14
 28        -1.2095849046e-14
 29        -1.0703002114e-01
 30         3.4159144811e-03
 31        -9.4297510877e-16
 32         2.4817554467e-15
 33         1.6418851118e-14
 34         3.1214791102e-01
 35        -9.9623503590e-03
 36         6.2102549721e-15
 37        -1.3419043034e-14
 38        -4.9601870730e-15
 39        -4.0695080191e-01
 40         1.2988030111e-02
 41        -5.7073581933e-15
 42         1.2404948988e-14
 43        -9.8312452195e-15
 44         4.1280754781e-01
 45        -1.3174950967e-02
 46         1.5416146416e-15
 47        -3.7196509267e-15
 48         1.1883018622e-14
 49        -2.4348676283e-01
 50         7.7709968685e-03
 Sym= A
 Ene=         1.5081009045e+00
 Spin= Alpha
 Occup=         0.0000000000e+00
  1        -1.1209583949e-15
  2         2.4435909494e-15
  3         8.9922111384e-15
  4         7.7709968685e-03
  5         2.4348676283e-01
  6         3.1161104403e-15
  7        -7.1784140742e-15
  8        -4.2993182317e-15
  9        -1.3174950967e-02
 10        -4.1280754781e-01
 11        -2.3185458428e-15
 12         5.4873395828e-15
 13        -7.4803299365e-15
 14         1.2988030111e-02
 15         4.0695080191e-01
 16        -9.4691368557e-16
 17         1.7791011915e-15
 18         8.7312508711e-15
 19        -9.9623503589e-03
 20        -3.1214791102e-01
 21         2.4607431131e-15
 22        -5.8927258021e-15
 23        -1.5591314584e-15
 24         3.4159144810e-03
 25         1.0703002114e-01
 26        -1.9018641875e-15
 27         3.8063311582e-15
 28        -4.5987422157e-15
 29         3.4159144810e-03
 30         1.0703002114e-01
 31        -4.6594134694e-16
 32         1.2852954016e-15
 33         4.1166761708e-15
 34        -9.9623503589e-03
 35        -3.1214791102e-01
 36         2.7441271451e-15
 37        -4.7687051863e-15
 38        -8.2341838375e-16
 39         1.2988030111e-02
 40         4.0695080191e-01
 41        -2.0991006067e-15
 42         4.0064156951e-15
 43        -2.9943289226e-15
 44        -1.3174950967e-02
 45        -4.1280754781e-01
 46        -4.2995254232e-16
 47        -4.5757981517e-16
 48         3.2501081869e-15
 49         7.7709968685e-03
 50         2.4348676283e-01
 Sym= A
 Ene=         1.5128707479e+00
 Spin= Alpha
 Occup=         0.0000000000e+00
  1        -1.2293676550e-15
  2         4.7632899400e-15
  3         1.5094043253e-14
  4        -1.0572042725e-02
  5         1.3575166045e-01
  6         8.3012510381e-15
  7        -1.7005898455e-14
  8        -9.3859936690e-15
  9         2.0020920757e-02
 10        -2.5708118168e-01
 11        -7.3630928631e-15
 12         1.5614644200e-14
 13        -1.0198969542e-14
 14        -2.5458954984e-02
 15         3.2690895245e-01
 16         2.6789274678e-17
 17        -6.7813598120e-16
 18         1.9612122017e-14
 19         2.9882682550e-02
 20        -3.8371238941e-01
 21         6.8188911528e-15
 22        -1.4023150356e-14
 23        -1.1529363917e-14
 24        -3.1510715144e-02
 25         4.0461734918e-01
 26        -5.8965932170e-15
 27         1.3249633343e-14
 28        -1.1603734016e-14
 29         3.1510715144e-02
 30        -4.0461734918e-01
 31        -4.0271613235e-16
 32         7.0866420845e-16
 33         1.9106337345e-14
 34        -2.9882682550e-02
 35         3.8371238941e-01
 36         6.0880004219e-15
 37        -1.4016985147e-14
 38        -9.1886802539e-15
 39         2.5458954984e-02
 40        -3.2690895245e-01
 41        -6.8022659521e-15
 42         1.4900104669e-14
 43        -9.7386763004e-15
 44        -2.0020920757e-02
 45         2.5708118168e-01
 46         1.7672173511e-15
 47        -4.7501526503e-15
 48         1.5415968185e-14
 49         1.0572042725e-02
 50        -1.3575166045e-01
 Sym= A
 Ene=         1.5128707479e+00
 Spin= Alpha
 Occup=         0.0000000000e+00
  1        -4.9142885540e-16
  2         6.0648261963e-16
  3        -1.1475970717e-15
  4         1.3575166045e-01
  5         1.0572042725e-02
  6        -4.0466428991e-16
  7         7.5542473302e-16
  8         3.0491310524e-15
  9        -2.5708118168e-01
 10        -2.0020920757e-02
 11         4.2165859019e-16
 12        -5.4808997545e-16
 13         3.2068965562e-15
 14         3.2690895245e-01
 15         2.5458954984e-02
 16         1.5533426053e-15
 17        -2.7795750702e-15
 18        -3.2186793338e-15
 19        -3.8371238941e-01
 20        -2.9882682550e-02
 21        -1.2962579365e-15
 22         3.1508592450e-15
 23        -1.6083688641e-15
 24         4.0461734918e-01
 25         3.1510715144e-02
 26         8.1947607677e-17
 27        -5.1986029113e-16
 28         3.4999690602e-15
 29        -4.0461734918e-01
 30        -3.1510715144e-02
 31         4.9633856593e-16
 32        -9.4408179530e-16
 33         4.2011897331e-16
 34         3.8371238941e-01
 35         2.9882682550e-02
 36        -1.4686396697e-16
 37         4.9364663341e-16
 38        -1.1327054632e-15
 39        -3.2690895245e-01
 40        -2.5458954984e-02
 41         5.9784758543e-16
 42        -1.1158087722e-15
 43        -7.0902446624e-16
 44         2.5708118168e-01
 45         2.0020920757e-02
 46        -5.2004564900e-16
 47         1.0421101355e-15
 48        -1.5570701069e-15
 49        -1.3575166045e-01
 50        -1.0572042725e-02
 Sym= A
 Ene=         1.5623918335e+00
 Spin= Alpha
 Occup=         0.0000000000e+00
  1         5.1376349283e-02
  2        -1.3256513127e-01
  3        -3.8478908060e-01
  4        -4.1092611424e-15
  5        -5.4264416938e-15
  6        -1.4386285663e-01
  7         3.0548479456e-01
  8         4.0380518611e-02
  9         5.7355480872e-15
 10         3.7592650735e-15
 11         4.8524382149e-02
 12        -9.9040064452e-02
 13         4.4885842588e-01
 14         6.6590159054e-16
 15         1.0590700072e-14
 16         1.1922848079e-01
 17        -2.3593828698e-01
 18        -2.3283736159e-01
 19         7.6040856303e-16
 20        -4.9019413666e-15
 21        -8.9183782856e-02
 22         1.7554929510e-01
 23        -3.6149173405e-01
 24        -6.3547032825e-15
 25         3.8918448374e-15
 26        -8.9183782856e-02
 27         1.7554929510e-01
 28         3.6149173405e-01
 29         4.2519189783e-15
 30         4.6028785549e-15
 31         1.1922848079e-01
 32        -2.3593828698e-01
 33         2.3283736159e-01
 34        -2.0491326941e-16
 35        -3.7537905054e-15
 36         4.8524382149e-02
 37        -9.9040064452e-02
 38        -4.4885842588e-01
 39        -3.8725281260e-15
 40         3.1513829163e-15
 41        -1.4386285663e-01
 42         3.0548479456e-01
 43        -4.0380518611e-02
 44         1.9434326716e-15
 45        -1.0395522157e-15
 46         5.1376349283e-02
 47        -1.3256513127e-01
 48         3.8478908060e-01
 49        -1.9116356721e-15
 50         3.1716570064e-15
 Sym= A
 Ene=         1.6268679656e+00
 Spin= Alpha
 Occup=         0.0000000000e+00
  1         5.9829863455e-02
  2        -1.4091165358e-01
  3        -3.8359053114e-01
  4         2.2136331537e-15
  5        -3.6860723302e-16
  6        -9.9635619879e-02
  7         2.0824884497e-01
  8        -1.8261107980e-01
  9        -3.9083419048e-15
 10        -2.0200632284e-15
 11        -4.1034819090e-02
 12         7.9052332088e-02
 13         4.1412469248e-01
 14        -1.8438823848e-15
 15         1.2486882436e-15
 16         7.8893536070e-02
 17        -1.5355567016e-01
 18         2.6459985347e-01
 19         1.0207744196e-16
 20         2.6314656477e-15
 21         6.4865196635e-02
 22        -1.3037211599e-01
 23        -3.5062778935e-01
 24        -9.9260153302e-16
 25         8.0588688958e-16
 26        -6.4865196635e-02
 27         1.3037211599e-01
 28        -3.5062778935e-01
 29        -9.3051377149e-16
 30         4.0199865867e-15
 31        -7.8893536070e-02
 32         1.5355567016e-01
 33         2.6459985347e-01
 34        -1.3184809495e-15
 35         1.0653385322e-16
 36         4.1034819090e-02
 37        -7.9052332088e-02
 38         4.1412469248e-01
 39         1.8402128283e-16
 40         1.3901897988e-16
 41         9.9635619879e-02
 42        -2.0824884497e-01
 43        -1.8261107980e-01
 44        -3.5596869655e-16
 45        -1.1495058773e-15
 46        -5.9829863455e-02
 47         1.4091165358e-01
 48        -3.8359053114e-01
 49        -6.8260337792e-16
 50        -1.3098426310e-15
 Sym= A
 Ene=         1.6823041018e+00
 Spin= Alpha
 Occup=         0.0000000000e+00
  1         6.1342212190e-02
  2        -1.3735053041e-01
  3        -3.7015601069e-01
  4        -1.9089159844e-15
  5        -2.4259878122e-16
  6        -5.2257243868e-02
  7         1.1541494269e-01
  8        -3.6738984630e-01
  9        -1.3334617406e-15
 10         1.4303813662e-16
 11        -6.4677250702e-02
 12         1.1893579047e-01
 13         1.3717896435e-01
 14         1.7575711997e-16
 15         4.7887980604e-16
 16        -1.3039293508e-02
 17         1.9633611398e-02
 18         4.4829795799e-01
 19        -3.1386194736e-15
 20        -1.3655504733e-15
 21         6.0380288901e-02
 22        -1.1052082092e-01
 23         2.4106058406e-01
 24         1.9398277896e-15
 25        -9.8948161469e-16
 26         6.0380288901e-02
 27        -1.1052082092e-01
 28        -2.4106058406e-01
 29        -1.3800550989e-15
 30         1.0847163437e-15
 31        -1.3039293508e-02
 32         1.9633611398e-02
 33        -4.4829795799e-01
 34         2.4894012409e-15
 35        -7.5329883370e-16
 36        -6.4677250702e-02
 37         1.1893579047e-01
 38        -1.3717896435e-01
 39         1.9284757812e-15
 40        -2.6728800629e-15
 41        -5.2257243868e-02
 42         1.1541494269e-01
 43         3.6738984630e-01
 44         5.1705639764e-15
 45        -8.3796240843e-16
 46         6.1342212190e-02
 47        -1.3735053041e-01
 48         3.7015601069e-01
 49         3.8684309453e-15
 50        -6.6194440549e-16
 Sym= A
 Ene=         1.7315033601e+00
 Spin= Alpha
 Occup=         0.0000000000e+00
  1         5.3721856489e-02
  2        -1.1683473348e-01
  3        -3.1763015079e-01
  4        -8.7271185061e-16
  5         5.2281785775e-16
  6        -1.0967407956e-02
  7         3.6606376007e-02
  8        -4.5983572802e-01
  9         1.5514964127e-16
 10        -5.9879505168e-16
 11        -4.0633695949e-02
 12         6.8343931304e-02
 13        -2.3173220601e-01
 14        -2.0631793433e-16
 15         2.3011601277e-16
 16        -4.7383078409e-02
 17         8.7449395860e-02
 18         1.2784539939e-01
 19         1.2082358453e-15
 20         8.2459810668e-16
 21        -1.6294933568e-02
 22         3.5703166911e-02
 23         4.1359171221e-01
 24         3.8059507458e-15
 25         1.0283153800e-15
 26         1.6294933568e-02
 27        -3.5703166911e-02
 28         4.1359171221e-01
 29         7.2196191874e-16
 30        -2.9189830039e-16
 31         4.7383078409e-02
 32        -8.7449395860e-02
 33         1.2784539939e-01
 34         2.1302320503e-15
 35         4.5231676997e-16
 36         4.0633695949e-02
 37        -6.8343931304e-02
 38        -2.3173220601e-01
 39         1.8250972684e-15
 40        -3.0741844695e-16
 41         1.0967407956e-02
 42        -3.6606376007e-02
 43        -4.5983572802e-01
 44        -1.0318035758e-15
 45         1.1588987317e-15
 46        -5.3721856489e-02
 47         1.1683473348e-01
 48        -3.1763015079e-01
 49         2.5068109719e-15
 50        -3.0487564877e-16
 Sym= A
 Ene=         1.7703060414e+00
 Spin= Alpha
 Occup=         0.0000000000e+00
  1         3.9568661925e-02
  2        -8.4751176827e-02
  3        -2.3378017802e-01
  4         7.0735492454e-17
  5         3.7323396955e-17
  6         1.0882603930e-02
  7        -7.3888858836e-03
  8        -4.2139364083e-01
  9        -1.2014900662e-15
 10        -2.5762355254e-16
 11        -7.4088628634e-03
 12         4.5698525155e-03
 13        -4.4011965681e-01
 14        -1.7949505540e-15
 15         3.5437133879e-16
 16        -1.6890749887e-02
 17         3.7132543167e-02
 18        -3.3893593668e-01
 19        -2.6400479807e-15
 20         1.3821155174e-15
 21        -2.9466725788e-02
 22         5.2608602669e-02
 23        -1.2330684274e-01
 24         9.6434077662e-16
 25         1.0223566288e-16
 26        -2.9466725788e-02
 27         5.2608602669e-02
 28         1.2330684274e-01
 29         2.5584467451e-16
 30         2.7218502387e-16
 31        -1.6890749887e-02
 32         3.7132543167e-02
 33         3.3893593668e-01
 34         2.1321772707e-15
 35         6.9045527494e-16
 36        -7.4088628634e-03
 37         4.5698525155e-03
 38         4.4011965681e-01
 39        -4.6247838034e-16
 40        -6.3650512130e-16
 41         1.0882603930e-02
 42        -7.3888858836e-03
 43         4.2139364083e-01
 44        -1.6153945416e-15
 45         9.8862493259e-17
 46         3.9568661925e-02
 47        -8.4751176827e-02
 48         2.3378017802e-01
 49        -1.8844403376e-15
 50         7.1286348390e-16
 Sym= A
 Ene=         1.7947831791e+00
 Spin= Alpha
 Occup=         0.0000000000e+00
  1         2.1003222413e-02
  2        -4.4667045117e-02
  3        -1.2472930806e-01
  4        -1.4126730341e-15
  5        -1.3315086138e-15
  6         1.1949250090e-02
  7        -1.5122013034e-02
  8        -2.5258721738e-01
  9        -1.8797445769e-15
 10         5.8685676002e-16
 11         6.2765509068e-03
 12        -1.7953952442e-02
 13        -3.4055354862e-01
 14         8.0068767615e-16
 15        -3.5392955099e-16
 16         9.6515561203e-03
 17        -1.1558686425e-02
 18        -4.0896847806e-01
 19         6.7206106842e-16
 20         7.5173945344e-16
 21        -2.6591196083e-03
 22        -1.4580656010e-03
 23        -4.4164480955e-01
 24        -1.9044092888e-16
 25        -9.4274316821e-16
 26         2.6591196083e-03
 27         1.4580656010e-03
 28        -4.4164480955e-01
 29        -6.8090980881e-16
 30         8.8174665174e-16
 31        -9.6515561203e-03
 32         1.1558686425e-02
 33        -4.0896847806e-01
 34         1.5700250838e-15
 35        -4.7254213118e-16
 36        -6.2765509068e-03
 37         1.7953952442e-02
 38        -3.4055354862e-01
 39         3.3769609557e-17
 40         9.1385928531e-16
 41        -1.1949250090e-02
 42         1.5122013034e-02
 43        -2.5258721738e-01
 44        -1.1697620888e-16
 45        -2.9229760390e-16
 46        -2.1003222413e-02
 47         4.4667045117e-02
 48        -1.2472930806e-01
 49         1.5364993042e-15
 50        -1.7095219323e-15
 Sym= A
 Ene=        -4.4619457993e-01
 Spin= Beta
 Occup=         1.0000000000e+00
  1         1.6039625653e-02
  2         2.5411258276e-02
  3         6.1052679947e-05
  4         1.2687094394e-16
  5        -1.2816822873e-16
  6        -7.2493286235e-03
  7        -5.1172317140e-03
  8        -2.0276067490e-03
  9        -2.5279409262e-18
 10         2.0504367264e-16
 11        -4.6285108809e-02
 12        -6.9742427782e-02
 13         9.1906647931e-04
 14         7.2594712914e-18
 15        -1.4449115344e-16
 16         4.3297447502e-02
 17         1.2333064713e-02
 18         7.4192892687e-03
 19         2.3060115742e-17
 20         3.4842922586e-17
 21         2.9907353160e-01
 22         3.6915436795e-01
 23         9.1544411119e-03
 24         3.8075168973e-17
 25        -1.2512593733e-16
 26         2.9907353848e-01
 27         3.6915437431e-01
 28        -9.1544404717e-03
 29        -4.9802411274e-17
 30         5.8786428474e-17
 31         4.3297470707e-02
 32         1.2333093218e-02
 33        -7.4192887511e-03
 34        -4.6753096199e-18
 35        -8.1366767782e-17
 36        -4.6285088031e-02
 37        -6.9742402377e-02
 38        -9.1906723036e-04
 39        -1.5763254016e-17
 40        -4.9366830764e-17
 41        -7.2493274078e-03
 42        -5.1172332713e-03
 43         2.0276062182e-03
 44         2.3749999421e-18
 45        -7.3610785390e-17
 46         1.6039621304e-02
 47         2.5411252229e-02
 48        -6.1052634604e-05
 49        -3.3003436145e-18
 50         3.0939535682e-17
 Sym= A
 Ene=        -4.3002305604e-01
 Spin= Beta
 Occup=         1.0000000000e+00
  1        -3.1314379202e-03
  2        -4.7811653834e-03
  3        -1.8591412112e-05
  4        -6.1946792657e-17
  5        -4.1820383387e-17
  6         7.6380735240e-04
  7         3.5613739965e-04
  8         3.2471125299e-04
  9        -1.6389174151e-16
 10        -8.0723161080e-17
 11         6.9237668888e-03
 12         1.0660309569e-02
 13        -7.7676469951e-05
 14         3.7713844321e-18
 15         5.3195272850e-17
 16        -2.6019423680e-03
 17        -1.6000161591e-03
 18        -7.2279461914e-04
 19        -5.6617476423e-17
 20         7.8305294179e-18
 21        -1.5903778970e-02
 22        -2.5669657052e-02
 23         1.8191077433e-04
 24        -4.2620691787e-17
 25         1.7771207953e-16
 26         8.0964415454e-03
 27         7.2312542600e-03
 28         2.0207758319e-03
 29        -2.4635100436e-17
 30        -9.9795179432e-17
 31         4.5486178867e-02
 32         6.6846269496e-02
 33        -9.9961411968e-04
 34        -8.7248883476e-18
 35         6.0816562380e-17
 36        -4.4099379680e-02
 37        -8.6161412622e-03
 38        -7.2583735827e-03
 39        -6.4556190314e-18
 40         1.0722774653e-16
 41        -3.0386827378e-01
 42        -3.8466112770e-01
 43        -9.8753983028e-03
 44        -2.5297249111e-18
 45         3.8083840774e-18
 46        -3.0245893954e-01
 47        -3.6319484574e-01
 48         1.3136722564e-02
 49        -6.9681846878e-17
 50         5.6928431765e-17
 Sym= A
 Ene=        -4.0408608829e-01
 Spin= Beta
 Occup=         1.0000000000e+00
  1        -6.9644477385e-03
  2        -1.0671386881e-02
  3        -1.9910005358e-05
  4        -5.6260786553e-17
  5        -1.1255688109e-17
  6         2.3501494425e-03
  7         1.1429863525e-03
  8         7.4645813683e-04
  9        -7.2209156831e-17
 10        -2.6117312012e-17
 11         1.6450970435e-02
 12         2.6444499306e-02
 13        -1.9552117712e-04
 14        -4.8898430527e-17
 15        -2.2437097946e-17
 16        -8.5083420580e-03
 17        -7.2130996323e-03
 18        -2.0548471254e-03
 19        -6.2667137985e-17
 20         1.5325204590e-16
 21        -4.6394057551e-02
 22        -6.9844707427e-02
 23         9.7903480285e-04
 24        -5.6685115241e-17
 25        -9.5116028813e-17
 26         4.4472981815e-02
 27         1.3578019180e-02
 28         7.4822257830e-03
 29        -1.0957194813e-17
 30         1.5463040005e-18
 31         3.0020296086e-01
 32         3.7139968366e-01
 33         9.1232889352e-03
 34         7.7283675361e-17
 35        -1.1662303195e-16
 36         2.9898164161e-01
 37         3.6909348765e-01
 38        -9.4211117616e-03
 39         6.7732623458e-18
 40         1.4471192846e-17
 41         3.8459820297e-02
 42         5.2056644656e-03
 43        -7.2593973771e-03
 44        -2.5415652086e-17
 45        -1.6137423594e-16
 46        -4.5979052136e-02
 47        -6.8662523559e-02
 48        -2.2223021724e-04
 49         1.7688692558e-17
 50         7.8989257340e-17
 Sym= A
 Ene=        -3.6953468929e-01
 Spin= Beta
 Occup=         1.0000000000e+00
  1         4.5979052836e-02
  2         6.8662523865e-02
  3        -2.2223013017e-04
  4         6.2022071020e-17
  5         1.5735902990e-17
  6        -3.8459817545e-02
  7        -5.2056613446e-03
  8        -7.2593972708e-03
  9         2.0732307465e-17
 10         1.1914126614e-16
 11        -2.9898163731e-01
 12        -3.6909348152e-01
 13        -9.4211118875e-03
 14        -9.4929264055e-18
 15        -9.4705727870e-17
 16        -3.0020296468e-01
 17        -3.7139968528e-01
 18         9.1232883081e-03
 19         3.4038696362e-17
 20        -7.3986884363e-17
 21        -4.4473005662e-02
 22        -1.3578049015e-02
 23         7.4822251481e-03
 24         5.7063813439e-19
 25        -2.6162004402e-17
 26         4.6394036866e-02
 27         6.9844680590e-02
 28         9.7903573200e-04
 29        -2.0635569779e-17
 30         8.8974210974e-17
 31         8.5083486899e-03
 32         7.2131109120e-03
 33        -2.0548462835e-03
 34         3.0176077262e-17
 35        -5.4554687908e-17
 36        -1.6450957396e-02
 37        -2.6444482208e-02
 38        -1.9552142784e-04
 39         3.3657698066e-17
 40        -5.9336028853e-18
 41        -2.3501481743e-03
 42        -1.1429864582e-03
 43         7.4645773549e-04
 44         8.5603577658e-19
 45         3.5795153882e-17
 46         6.9644445587e-03
 47         1.0671382175e-02
 48        -1.9909985862e-05
 49        -2.4218526670e-17
 50        -5.9015743327e-17
 Sym= A
 Ene=        -3.3252595783e-01
 Spin= Beta
 Occup=         1.0000000000e+00
  1         3.0245893913e-01
  2         3.6319484511e-01
  3         1.3136722565e-02
  4        -1.4669541473e-16
  5        -6.8525882169e-17
  6         3.0386827409e-01
  7         3.8466112777e-01
  8        -9.8753982407e-03
  9         1.3021605940e-17
 10         5.2128505861e-17
 11         4.4099382032e-02
 12         8.6161442364e-03
 13        -7.2583735213e-03
 14         6.0369718148e-18
 15         2.4771097673e-19
 16        -4.5486176982e-02
 17        -6.6846266958e-02
 18        -9.9961422306e-04
 19         3.0080981064e-17
 20        -1.0173329752e-16
 21        -8.0964427553e-03
 22        -7.2312560647e-03
 23         2.0207757367e-03
 24        -2.3804448243e-17
 25         9.2856956504e-17
 26         1.5903777275e-02
 27         2.5669654801e-02
 28         1.8191082426e-04
 29        -8.1258226283e-18
 30        -9.6923799328e-17
 31         2.6019426062e-03
 32         1.6000166755e-03
 33        -7.2279455332e-04
 34        -8.6257723495e-17
 35         2.8134327054e-16
 36        -6.9237660393e-03
 37        -1.0660308419e-02
 38        -7.7676479701e-05
 39        -2.3186706161e-17
 40        -1.2969168155e-16
 41        -7.6380721735e-04
 42        -3.5613733500e-04
 43         3.2471122622e-04
 44         2.1710371561e-17
 45         1.1530109646e-16
 46         3.1314377339e-03
 47         4.7811650908e-03
 48        -1.8591412843e-05
 49         3.8538196690e-18
 50        -2.3549248845e-17
 Sym= A
 Ene=        -1.2736348506e-01
 Spin= Beta
 Occup=         0.0000000000e+00
  1         3.5692367993e-02
  2         2.8273586519e-02
  3         8.2906251861e-03
  4         6.9050869075e-17
  5        -1.1699107776e-16
  6         8.4791169328e-02
  7         1.8866071859e-01
  8        -1.5470819585e-02
  9        -8.9671722688e-18
 10         1.2201090953e-16
 11        -3.3882017292e-01
 12        -6.2006000154e-01
 13         1.4651296644e-02
 14         7.3872337248e-18
 15         2.1180886749e-17
 16         3.3651865750e-01
 17         6.1744405051e-01
 18         1.4549079914e-02
 19        -5.3325826297e-18
 20         5.9407981996e-17
 21        -8.7009857682e-02
 22        -1.8380822341e-01
 23        -1.5437109195e-02
 24        -4.1995600350e-18
 25        -1.9166014249e-17
 26        -3.0254715785e-02
 27        -4.0463525703e-02
 28         7.6509659045e-03
 29         4.5648157813e-18
 30        -9.4525035493e-17
 31         3.4935479727e-03
 32         2.5364457552e-02
 33        -7.8900516203e-04
 34         7.3247179513e-17
 35         1.1080191249e-16
 36         1.9765120488e-02
 37         1.7515243451e-02
 38         2.9413542736e-04
 39         1.4425758139e-18
 40        -9.1269681684e-17
 41        -5.0927503470e-03
 42        -5.2901159530e-03
 43        -8.7984918397e-04
 44        -4.7979767217e-18
 45        -6.5937064126e-17
 46        -6.4208695310e-03
 47        -9.4904702666e-03
 48         3.7026166342e-04
 49        -5.9194930344e-18
 50         1.1527558577e-16
 Sym= A
 Ene=        -7.8346187844e-02
 Spin= Beta
 Occup=         0.0000000000e+00
  1        -3.1686309284e-03
  2        -3.7773158373e-03
  3        -8.7890738480e-05
  4         1.0918662799e-16
  5        -5.6971954360e-17
  6        -1.1549244880e-03
  7        -3.4024906224e-03
  8         2.1848522377e-04
  9        -1.1021688591e-16
 10         2.5876620340e-17
 11         6.3929054930e-03
 12         1.0560271610e-02
 13         3.1962509535e-04
 14         3.5733851624e-18
 15         2.1145152428e-17
 16         4.8293407141e-03
 17         4.7266829012e-03
 18        -8.8429975003e-04
 19        -1.6095877107e-18
 20         3.5186610682e-17
 21        -1.9120998163e-02
 22        -1.7627897035e-02
 23         3.1602917774e-04
 24         1.8297494956e-17
 25        -1.0640322175e-16
 26        -2.7566683250e-03
 27        -2.2325106896e-02
 28        -6.9208427386e-04
 29        -5.9083982201e-17
 30         8.6617161417e-17
 31         3.0344309541e-02
 32         3.7477896059e-02
 33         7.1647072249e-03
 34         7.8556183141e-18
 35         6.5541924624e-17
 36         8.0801430058e-02
 37         1.8147671278e-01
 38        -1.4637321804e-02
 39         1.1399708532e-17
 40         1.3812475132e-16
 41        -3.2976199376e-01
 42        -6.2056524109e-01
 43         1.2995332473e-02
 44         2.4792271455e-17
 45         5.6057050016e-17
 46         3.1924187632e-01
 47         5.9946001052e-01
 48         1.6525326572e-02
 49        -2.6196904495e-18
 50         1.5122535326e-17
 Sym= A
 Ene=        -2.4741807699e-02
 Spin= Beta
 Occup=         0.0000000000e+00
  1        -1.8603372358e-02
  2        -1.6559302976e-02
  3         3.0303901420e-04
  4        -4.4407914394e-17
  5        -7.6966662521e-17
  6        -3.3648924335e-03
  7        -2.4818197204e-02
  8        -8.6911538365e-04
  9        -6.0801109995e-19
 10         1.0576045707e-16
 11         3.0414335851e-02
 12         3.9952098176e-02
 13         7.7118339191e-03
 14        -4.2159223560e-19
 15        -6.2050289072e-17
 16         8.8024211899e-02
 17         1.8567142553e-01
 18        -1.5361428098e-02
 19         1.5674687609e-18
 20         4.4711459092e-17
 21        -3.3768132582e-01
 22        -6.1686026912e-01
 23         1.4443222013e-02
 24         1.3487534620e-17
 25         1.6421807106e-17
 26         3.3768132522e-01
 27         6.1686026797e-01
 28         1.4443222126e-02
 29        -3.1823806462e-17
 30         2.9555560049e-17
 31        -8.8024210183e-02
 32        -1.8567142231e-01
 33        -1.5361428166e-02
 34         1.3129446842e-17
 35        -3.1979464239e-17
 36        -3.0414337344e-02
 37        -3.9952100968e-02
 38         7.7118338334e-03
 39         1.9063451636e-17
 40         8.2751593342e-17
 41         3.3648925041e-03
 42         2.4818197500e-02
 43        -8.6911529899e-04
 44         1.4415482218e-17
 45        -4.5714838988e-17
 46         1.8603372812e-02
 47         1.6559303651e-02
 48         3.0303899127e-04
 49         5.7627838210e-18
 50         8.4504719928e-17
 Sym= A
 Ene=         2.5524450924e-02
 Spin= Beta
 Occup=         0.0000000000e+00
  1         6.4208694351e-03
  2         9.4904701845e-03
  3         3.7026166301e-04
  4         5.6961854200e-17
  5         1.9016921410e-18
  6         5.0927503102e-03
  7         5.2901157866e-03
  8        -8.7984918499e-04
  9        -3.9065516006e-17
 10         6.8313189598e-17
 11        -1.9765120265e-02
 12        -1.7515243120e-02
 13         2.9413546201e-04
 14        -1.7857900236e-18
 15        -3.0268755291e-17
 16        -3.4935476172e-03
 17        -2.5364456777e-02
 18        -7.8900524068e-04
 19        -1.4528294776e-17
 20         5.1067764745e-18
 21         3.0254714150e-02
 22         4.0463522707e-02
 23         7.6509659792e-03
 24         3.1707499904e-18
 25         7.6620989190e-17
 26         8.7009859361e-02
 27         1.8380822649e-01
 28        -1.5437109125e-02
 29         2.2662006111e-17
 30        -1.2383318570e-16
 31        -3.3651865796e-01
 32        -6.1744405147e-01
 33         1.4549079833e-02
 34         9.1930826090e-18
 35        -7.6964083656e-17
 36         3.3882017270e-01
 37         6.2006000120e-01
 38         1.4651296693e-02
 39        -5.9266003832e-18
 40         9.4221501698e-17
 41        -8.4791169058e-02
 42        -1.8866071800e-01
 43        -1.5470819600e-02
 44        -1.9507969747e-17
 45        -1.7048477965e-17
 46        -3.5692368143e-02
 47        -2.8273586893e-02
 48         8.2906251749e-03
 49         1.6873559619e-18
 50        -6.0457103704e-17
 Sym= A
 Ene=         6.3215164444e-02
 Spin= Beta
 Occup=         0.0000000000e+00
  1         3.1924187637e-01
  2         5.9946001055e-01
  3        -1.6525326566e-02
  4         6.0999978716e-17
  5         3.9315360327e-17
  6        -3.2976199369e-01
  7        -6.2056524093e-01
  8        -1.2995332484e-02
  9         4.5264109893e-17
 10        -8.1521153790e-17
 11         8.0801429770e-02
 12         1.8147671226e-01
 13         1.4637321808e-02
 14         1.7510358036e-18
 15        -7.6086910390e-17
 16         3.0344309712e-02
 17         3.7477896349e-02
 18        -7.1647071987e-03
 19         3.9505576135e-18
 20         1.0575061178e-17
 21        -2.7566680621e-03
 22        -2.2325106434e-02
 23         6.9208424792e-04
 24        -5.0138635450e-18
 25        -1.3854903761e-16
 26        -1.9120998517e-02
 27        -1.7627897671e-02
 28        -3.1602918596e-04
 29         4.0885342406e-18
 30         1.4255487312e-16
 31         4.8293408058e-03
 32         4.7266831068e-03
 33         8.8429976460e-04
 34        -4.9888949040e-17
 35        -2.2121356296e-16
 36         6.3929055386e-03
 37         1.0560271665e-02
 38        -3.1962510323e-04
 39        -3.1013845810e-17
 40         1.3006631948e-16
 41        -1.1549245056e-03
 42        -3.4024906701e-03
 43        -2.1848522308e-04
 44        -4.5917372292e-17
 45        -9.0816815243e-17
 46        -3.1686309408e-03
 47        -3.7773158408e-03
 48         8.7890738963e-05
 49         6.6445403101e-19
 50         1.4164316426e-16
 Sym= A
 Ene=         6.5423035201e-01
 Spin= Beta
 Occup=         0.0000000000e+00
  1         9.1204485376e-01
  2        -9.0758713490e-01
  3         1.1660405687e-02
  4         3.8156026825e-16
  5        -1.1318223893e-16
  6        -2.1322317011e-02
  7         1.7532868530e-01
  8         1.3950413711e-02
  9        -1.0548715459e-16
 10         1.1841399241e-16
 11        -1.6533998004e-01
 12         1.3604951348e-01
 13        -1.8010718775e-02
 14        -1.1285982822e-16
 15        -7.3003426190e-17
 16         9.6038086288e-02
 17        -1.2060084001e-01
 18         4.0437892245e-03
 19        -1.5556164486e-16
 20        -2.1984812369e-17
 21        -1.6612469031e-02
 22         3.3068108847e-02
 23         5.5000377730e-03
 24         1.4631326945e-16
 25         1.5888426715e-16
 26        -1.6612469031e-02
 27         3.3068108847e-02
 28        -5.5000377730e-03
 29         2.2901436763e-17
 30        -1.0703897524e-16
 31         9.6038086287e-02
 32        -1.2060084001e-01
 33        -4.0437892244e-03
 34         3.5109569586e-16
 35        -3.4631988573e-17
 36        -1.6533998004e-01
 37         1.3604951348e-01
 38         1.8010718775e-02
 39         1.1187550749e-16
 40         2.5374062720e-16
 41        -2.1322317010e-02
 42         1.7532868530e-01
 43        -1.3950413711e-02
 44        -6.0980782868e-17
 45        -5.4691514487e-16
 46         9.1204485375e-01
 47        -9.0758713489e-01
 48        -1.1660405687e-02
 49        -1.7583103660e-18
 50        -1.0068308745e-16
 Sym= A
 Ene=         6.5437822175e-01
 Spin= Beta
 Occup=         0.0000000000e+00
  1         9.1345160847e-01
  2        -9.0791839642e-01
  3         1.1737134613e-02
  4        -4.0022027368e-16
  5         1.7832560629e-17
  6        -1.4080170425e-02
  7         1.6925422975e-01
  8         1.3471251548e-02
  9         9.5700582384e-17
 10        -7.9295371448e-18
 11        -1.6842879158e-01
 12         1.3431353777e-01
 13        -1.7161860378e-02
 14         1.6902102105e-16
 15         5.0102018642e-17
 16         7.6113477159e-02
 17        -9.3870539881e-02
 18         4.6207672494e-03
 19         2.4101641858e-16
 20         3.0947012201e-16
 21         2.8814906011e-02
 22        -6.5776283130e-03
 23         4.6450047626e-04
 24         1.3722280438e-16
 25        -6.6470453011e-18
 26        -2.8814906010e-02
 27         6.5776283127e-03
 28         4.6450047631e-04
 29         1.5555145124e-16
 30        -1.4327210723e-16
 31        -7.6113477160e-02
 32         9.3870539882e-02
 33         4.6207672494e-03
 34         2.1711494256e-16
 35         4.3732009482e-16
 36         1.6842879158e-01
 37        -1.3431353777e-01
 38        -1.7161860378e-02
 39         6.9795042292e-17
 40        -9.6057189657e-17
 41         1.4080170425e-02
 42        -1.6925422975e-01
 43         1.3471251548e-02
 44         2.0251870617e-17
 45        -8.1852602105e-17
 46        -9.1345160847e-01
 47         9.0791839643e-01
 48         1.1737134613e-02
 49        -1.8635723580e-16
 50         4.4325524310e-16
 Sym= A
 Ene=         6.7970218728e-01
 Spin= Beta
 Occup=         0.0000000000e+00
  1         1.2905784406e-01
  2        -7.5207002799e-02
  3         3.3518024120e-03
  4         2.3325634303e-16
  5        -9.0551715494e-17
  6         3.7832563084e-01
  7        -2.8018989498e-01
  8        -1.0649405509e-02
  9        -1.0869347919e-16
 10        -5.3543712906e-17
 11         3.0001177954e-01
 12        -3.2896582119e-01
 13         2.1923833650e-03
 14        -7.4268242766e-17
 15         1.0098687998e-16
 16        -5.6809315471e-01
 17         4.9909732079e-01
 18         1.9188354260e-02
 19        -9.1144891827e-17
 20         3.0293715855e-17
 21        -5.6351689932e-01
 22         5.4829499674e-01
 23        -1.4659845536e-02
 24         9.9773883267e-17
 25        -1.5330896660e-16
 26         5.6351689932e-01
 27        -5.4829499674e-01
 28        -1.4659845536e-02
 29        -2.0930801078e-16
 30         6.5171836676e-16
 31         5.6809315471e-01
 32        -4.9909732080e-01
 33         1.9188354260e-02
 34         1.4113029651e-16
 35        -2.5603575508e-16
 36        -3.0001177954e-01
 37         3.2896582120e-01
 38         2.1923833650e-03
 39         3.8606881015e-16
 40         2.4251266199e-16
 41        -3.7832563084e-01
 42         2.8018989498e-01
 43        -1.0649405509e-02
 44         1.6806334729e-16
 45         3.6104527267e-16
 46        -1.2905784406e-01
 47         7.5207002799e-02
 48         3.3518024120e-03
 49         7.5860931028e-17
 50        -6.2269563550e-17
 Sym= A
 Ene=         6.8160990180e-01
 Spin= Beta
 Occup=         0.0000000000e+00
  1         5.0781579994e-02
  2        -2.7358085686e-02
  3         1.1281560366e-03
  4        -2.0139388342e-16
  5         6.1351223248e-17
  6         1.5844588751e-01
  7        -1.2155280847e-01
  8        -5.0678479186e-03
  9         2.6399689530e-16
 10         7.8575049581e-17
 11         8.7316298441e-02
 12        -1.1923922923e-01
 13        -7.3841927170e-04
 14         2.1117274011e-16
 15        -5.8428890359e-17
 16        -4.3386381373e-01
 17         3.2514893289e-01
 18         4.2662533556e-03
 19        -1.4924422358e-16
 20         2.2957944361e-16
 21        -8.2407322834e-01
 22         6.1754933114e-01
 23        -8.0736846648e-04
 24         3.2411357725e-17
 25         2.2129593616e-16
 26        -8.2407322834e-01
 27         6.1754933114e-01
 28         8.0736846644e-04
 29         4.7834961249e-16
 30         1.6981959704e-16
 31        -4.3386381372e-01
 32         3.2514893289e-01
 33        -4.2662533556e-03
 34         3.1499813589e-16
 35         1.7078414546e-16
 36         8.7316298440e-02
 37        -1.1923922923e-01
 38         7.3841927171e-04
 39         7.4763486278e-17
 40         8.1869374140e-18
 41         1.5844588751e-01
 42        -1.2155280847e-01
 43         5.0678479186e-03
 44        -9.5997731073e-17
 45        -1.0762017715e-16
 46         5.0781579993e-02
 47        -2.7358085686e-02
 48        -1.1281560366e-03
 49        -3.3848517011e-16
 50         1.6790792011e-16
 Sym= A
 Ene=         6.8195064233e-01
 Spin= Beta
 Occup=         0.0000000000e+00
  1         1.0315066911e-01
  2        -4.1163493758e-02
  3         4.0175420012e-03
  4        -1.0860391349e-16
  5        -9.6279726043e-17
  6         4.7136456115e-01
  7        -3.3341798054e-01
  8        -6.5890995687e-03
  9        -2.5369310476e-16
 10        -4.4584863787e-17
 11         7.2183300462e-01
 12        -5.8296950963e-01
 13        -1.1099454539e-03
 14        -2.6275873419e-16
 15         2.6469436989e-16
 16         3.8330959873e-01
 17        -2.7181852445e-01
 18         6.3127200720e-03
 19        -1.6404891043e-17
 20         2.4584541350e-16
 21        -2.1972455558e-02
 22         5.7532892360e-02
 23         1.9476991487e-03
 24         6.3218408747e-17
 25        -1.0582018999e-16
 26        -2.1972455552e-02
 27         5.7532892356e-02
 28        -1.9476991487e-03
 29         8.4836654928e-17
 30         1.8389789282e-17
 31         3.8330959874e-01
 32        -2.7181852446e-01
 33        -6.3127200720e-03
 34        -1.0957663967e-16
 35         1.1049351471e-16
 36         7.2183300464e-01
 37        -5.8296950964e-01
 38         1.1099454539e-03
 39        -1.9993066882e-16
 40        -4.9523975356e-17
 41         4.7136456116e-01
 42        -3.3341798055e-01
 43         6.5890995688e-03
 44        -3.0000953979e-16
 45         1.6404882483e-16
 46         1.0315066911e-01
 47        -4.1163493759e-02
 48        -4.0175420013e-03
 49        -2.3953465781e-16
 50         5.7695603198e-17
 Sym= A
 Ene=         6.8223182587e-01
 Spin= Beta
 Occup=         0.0000000000e+00
  1         8.5872647552e-02
  2        -2.8213501932e-02
  3         3.0801215064e-03
  4        -1.4521876294e-16
  5        -4.4322179757e-17
  6         4.2968198455e-01
  7        -3.0847315387e-01
  8        -5.1646491301e-03
  9        -2.1607182224e-16
 10        -1.3175850133e-16
 11         6.6759720587e-01
 12        -5.2293267757e-01
 13         5.6471199125e-04
 14        -4.3848409019e-16
 15        -4.1384076765e-16
 16         4.8466284913e-01
 17        -3.4441167559e-01
 18         2.1718986013e-03
 19        -2.7225275954e-16
 20         1.8004999006e-16
 21         1.7621938457e-01
 22        -1.2881773653e-01
 23        -2.0754634000e-03
 24        -3.2842149001e-17
 25        -2.6119843697e-16
 26        -1.7621938457e-01
 27         1.2881773653e-01
 28        -2.0754634000e-03
 29         1.2727164332e-16
 30         8.7075216094e-17
 31        -4.8466284912e-01
 32         3.4441167558e-01
 33         2.1718986011e-03
 34         2.7976867896e-18
 35         2.0258312062e-17
 36        -6.6759720585e-01
 37         5.2293267756e-01
 38         5.6471199131e-04
 39        -7.9925358047e-17
 40        -1.1014788984e-16
 41        -4.2968198454e-01
 42         3.0847315386e-01
 43        -5.1646491299e-03
 44        -3.0697206319e-17
 45        -1.4492528039e-16
 46        -8.5872647549e-02
 47         2.8213501931e-02
 48         3.0801215063e-03
 49         5.0718635539e-17
 50        -7.4809655153e-17
 Sym= A
 Ene=         6.8522627582e-01
 Spin= Beta
 Occup=         0.0000000000e+00
  1         7.9747695908e-02
  2         3.8777888745e-02
  3        -8.7998501430e-03
  4         3.1166019001e-17
  5         5.0415606949e-17
  6         5.7663315623e-01
  7        -5.7054022401e-01
  8        -1.1446770768e-02
  9         3.4803306559e-16
 10        -6.7219092482e-17
 11        -4.8803690490e-02
 12         2.6923170633e-02
 13         3.3783959751e-02
 14         3.1837055335e-16
 15        -2.9514247229e-16
 16        -5.9549297527e-01
 17         6.5766091326e-01
 18        -1.2891144158e-02
 19         1.3377813696e-18
 20        -3.1963080580e-17
 21         4.2034529848e-01
 22        -4.4750001528e-01
 23        -3.4423493515e-02
 24        -1.0276800084e-17
 25        -8.9074102085e-17
 26         4.2034529848e-01
 27        -4.4750001528e-01
 28         3.4423493515e-02
 29         3.0627942373e-16
 30         4.3598429618e-16
 31        -5.9549297527e-01
 32         6.5766091326e-01
 33         1.2891144158e-02
 34         3.5117865608e-16
 35        -1.5853126645e-16
 36        -4.8803690491e-02
 37         2.6923170633e-02
 38        -3.3783959752e-02
 39         1.1812175172e-16
 40         4.8949059316e-17
 41         5.7663315623e-01
 42        -5.7054022401e-01
 43         1.1446770768e-02
 44         5.3407392055e-18
 45         6.8687156465e-17
 46         7.9747695908e-02
 47         3.8777888745e-02
 48         8.7998501430e-03
 49         1.4331505837e-16
 50         2.2840926842e-16
 Sym= A
 Ene=         7.0089451750e-01
 Spin= Beta
 Occup=         0.0000000000e+00
  1         5.4335469040e-02
  2        -2.3325347607e-01
  3         2.8542810528e-02
  4        -5.9668516125e-16
  5        -2.6999486937e-16
  6        -6.7806079507e-01
  7         8.1925059434e-01
  8        -9.0532374546e-04
  9         5.0307079656e-17
 10        -1.3494020290e-16
 11         3.7736234768e-01
 12        -4.8602903620e-01
 13        -4.8818710262e-02
 14        -2.6705994725e-17
 15        -5.6061776967e-17
 16         2.2848097537e-01
 17        -2.5630064003e-01
 18         5.8778912578e-02
 19        -1.3140971988e-16
 20        -2.8749647922e-16
 21        -4.6308110091e-01
 22         6.4272498216e-01
 23        -2.2614628149e-02
 24         1.3713700195e-16
 25         5.1659728741e-16
 26         4.6308110091e-01
 27        -6.4272498216e-01
 28        -2.2614628149e-02
 29         2.1661572283e-16
 30        -5.2773065068e-16
 31        -2.2848097537e-01
 32         2.5630064003e-01
 33         5.8778912578e-02
 34         1.0509218788e-16
 35         2.6101351951e-16
 36        -3.7736234768e-01
 37         4.8602903620e-01
 38        -4.8818710262e-02
 39        -2.6903834626e-16
 40        -7.6021123586e-17
 41         6.7806079507e-01
 42        -8.1925059434e-01
 43        -9.0532374547e-04
 44        -9.6312019260e-17
 45        -1.6069387796e-16
 46        -5.4335469040e-02
 47         2.3325347607e-01
 48         2.8542810528e-02
 49         8.6557393067e-17
 50         4.1835896294e-16
 Sym= A
 Ene=         7.5113079173e-01
 Spin= Beta
 Occup=         0.0000000000e+00
  1         1.4890160566e-01
  2        -3.5484497953e-01
  3         5.7250497828e-02
  4         7.7059701590e-17
  5        -7.5376251193e-17
  6        -5.6272866040e-01
  7         8.5880774372e-01
  8        -4.0106913960e-02
  9        -5.7197290351e-16
 10         2.5178177667e-16
 11         5.7681968634e-01
 12        -9.3121698269e-01
 13        -1.2686504258e-02
 14         1.2693014794e-16
 15        -1.7698803572e-16
 16        -4.3078480188e-01
 17         7.0675410988e-01
 18         5.5040087808e-02
 19         2.1098197676e-16
 20         1.6607404433e-16
 21         1.8775619279e-01
 22        -2.8283747022e-01
 23        -8.5679896909e-02
 24         2.2585500697e-16
 25        -7.8392939440e-17
 26         1.8775619279e-01
 27        -2.8283747022e-01
 28         8.5679896909e-02
 29         1.5407083681e-16
 30        -2.5361193363e-16
 31        -4.3078480188e-01
 32         7.0675410988e-01
 33        -5.5040087808e-02
 34         3.2575375606e-16
 35         1.3654494925e-16
 36         5.7681968634e-01
 37        -9.3121698269e-01
 38         1.2686504258e-02
 39         1.1603535761e-16
 40        -5.2323387475e-16
 41        -5.6272866040e-01
 42         8.5880774372e-01
 43         4.0106913960e-02
 44         1.6367051034e-16
 45         1.0790341498e-16
 46         1.4890160566e-01
 47        -3.5484497953e-01
 48        -5.7250497828e-02
 49         7.2373292340e-17
 50        -2.4786671361e-16
 Sym= A
 Ene=         8.5242268136e-01
 Spin= Beta
 Occup=         0.0000000000e+00
  1         1.1866512564e-01
  2        -2.8777182723e-01
  3         7.9198672062e-02
  4         4.2837334766e-16
  5         2.1753616796e-16
  6        -3.4291806491e-01
  7         6.3389231059e-01
  8        -8.4900591453e-02
  9        -4.4398860421e-16
 10        -1.1195666908e-16
 11         4.4668479631e-01
 12        -8.6561857029e-01
 13         6.5220330636e-02
 14        -4.1448350481e-16
 15         3.2696419160e-16
 16        -5.4520940326e-01
 17         1.0413015481e+00
 18        -4.4172115536e-02
 19        -5.8929172184e-17
 20        -1.6898778978e-17
 21         5.8454301512e-01
 22        -1.1253660989e+00
 23         1.2229078900e-02
 24         2.2424742579e-16
 25         7.0747883050e-17
 26        -5.8454301512e-01
 27         1.1253660989e+00
 28         1.2229078900e-02
 29        -8.5131353416e-16
 30         1.3030194302e-16
 31         5.4520940326e-01
 32        -1.0413015481e+00
 33        -4.4172115536e-02
 34        -3.5859648634e-17
 35         1.2546548283e-16
 36        -4.4668479631e-01
 37         8.6561857029e-01
 38         6.5220330636e-02
 39        -3.8002792573e-18
 40         2.2407530729e-17
 41         3.4291806491e-01
 42        -6.3389231059e-01
 43        -8.4900591453e-02
 44        -2.8199816850e-16
 45         6.9808844129e-17
 46        -1.1866512564e-01
 47         2.8777182723e-01
 48         7.9198672062e-02
 49         1.4814683742e-16
 50        -9.3979584415e-16
 Sym= A
 Ene=         1.2076533141e+00
 Spin= Beta
 Occup=         0.0000000000e+00
  1         5.2193677754e-02
  2        -1.2663848219e-01
  3         2.2065345599e-01
  4         1.4750404391e-15
  5        -8.1738384256e-16
  6        -6.8288593239e-02
  7         1.4497660557e-01
  8        -2.8890081213e-01
  9         1.1625842617e-15
 10        -4.9301087627e-16
 11         4.7778033585e-02
 12        -1.1301858851e-01
 13         3.1761426503e-01
 14         1.5032517431e-16
 15         6.8838169795e-16
 16        -3.0257072690e-02
 17         6.7798274140e-02
 18        -3.3065048893e-01
 19        -4.9751879432e-16
 20        -9.0347540744e-16
 21         8.8333037184e-03
 22        -2.3897677489e-02
 23         3.3817689861e-01
 24        -9.1709683697e-16
 25         2.3228669240e-16
 26         8.8333037184e-03
 27        -2.3897677489e-02
 28        -3.3817689861e-01
 29        -7.6137140076e-16
 30        -2.7426642373e-16
 31        -3.0257072690e-02
 32         6.7798274140e-02
 33         3.3065048893e-01
 34        -1.9530501992e-16
 35        -4.5514212049e-17
 36         4.7778033585e-02
 37        -1.1301858851e-01
 38        -3.1761426503e-01
 39         2.8224612255e-16
 40         2.2036101140e-16
 41        -6.8288593239e-02
 42         1.4497660557e-01
 43         2.8890081213e-01
 44         2.4770899106e-17
 45        -8.1238121967e-16
 46         5.2193677754e-02
 47        -1.2663848219e-01
 48        -2.2065345599e-01
 49        -1.2249405569e-15
 50        -6.3605150756e-16
 Sym= A
 Ene=         1.3145326528e+00
 Spin= Beta
 Occup=         0.0000000000e+00
  1         2.7456421576e-02
  2        -5.0215061665e-02
  3         3.2344747344e-01
  4        -5.2184057216e-15
  5         1.6402383338e-15
  6         3.3508109455e-02
  7        -9.6402684695e-02
  8        -3.9976258503e-01
  9         1.9522305907e-15
 10        -1.6806940324e-15
 11        -1.2361368406e-01
 12         2.9494357835e-01
 13         3.5800049519e-01
 14         9.3060227423e-16
 15        -2.8066748501e-15
 16         1.9736661005e-01
 17        -4.6521079918e-01
 18        -2.4238940307e-01
 19        -4.1540384705e-15
 20         7.0047156035e-16
 21        -2.3591919400e-01
 22         5.5556119884e-01
 23         8.4883133962e-02
 24        -9.9386232743e-16
 25         2.9363989828e-15
 26         2.3591919400e-01
 27        -5.5556119884e-01
 28         8.4883133962e-02
 29        -5.8656765012e-16
 30         1.1264618298e-15
 31        -1.9736661005e-01
 32         4.6521079918e-01
 33        -2.4238940307e-01
 34         7.8970880665e-16
 35         1.5889542676e-15
 36         1.2361368406e-01
 37        -2.9494357835e-01
 38         3.5800049519e-01
 39         6.4837169407e-16
 40         2.8769826294e-15
 41        -3.3508109455e-02
 42         9.6402684695e-02
 43        -3.9976258503e-01
 44        -2.2902934620e-15
 45         3.2274000544e-15
 46        -2.7456421576e-02
 47         5.0215061665e-02
 48         3.2344747344e-01
 49        -8.8678098799e-16
 50         1.1238880214e-15
 Sym= A
 Ene=         1.4201692335e+00
 Spin= Beta
 Occup=         0.0000000000e+00
  1         1.0789787572e-02
  2        -5.1962496784e-02
  3        -3.5696433004e-01
  4         2.7687495319e-15
  5        -5.8379582777e-15
  6        -1.2899937392e-01
  7         3.0834539934e-01
  8         3.5683847059e-01
  9         4.3403281024e-15
 10        -1.5449237924e-14
 11         2.1398726000e-01
 12        -4.9106701293e-01
 13        -1.1005663285e-01
 14         1.1284812843e-14
 15        -2.6681530279e-14
 16        -1.9704105522e-01
 17         4.4840503294e-01
 18        -2.0602724517e-01
 19         1.6368314269e-14
 20        -3.4858784252e-14
 21         8.1680225960e-02
 22        -1.8312426407e-01
 23         4.2831379188e-01
 24         2.8537128844e-14
 25        -4.0314950285e-14
 26         8.1680225960e-02
 27        -1.8312426407e-01
 28        -4.2831379188e-01
 29         3.6960985485e-14
 30        -4.3612231218e-14
 31        -1.9704105522e-01
 32         4.4840503294e-01
 33         2.0602724517e-01
 34         4.1642952055e-14
 35        -4.3691068411e-14
 36         2.1398726000e-01
 37        -4.9106701293e-01
 38         1.1005663285e-01
 39         2.7998721441e-14
 40        -3.3774499668e-14
 41        -1.2899937392e-01
 42         3.0834539934e-01
 43        -3.5683847059e-01
 44         5.2840582664e-15
 45        -2.1878969427e-14
 46         1.0789787572e-02
 47        -5.1962496784e-02
 48         3.5696433004e-01
 49         3.9966083854e-15
 50        -1.4084847804e-14
 Sym= A
 Ene=         1.4254930959e+00
 Spin= Beta
 Occup=         0.0000000000e+00
  1        -1.5064805311e-15
  2         3.8769806054e-15
  3         2.3099467499e-14
  4         1.1670160178e-01
  5         5.0355353473e-03
  6         7.3982467343e-15
  7        -1.8675926878e-14
  8        -2.1949975803e-14
  9         2.0540037511e-01
 10         8.8627819448e-03
 11        -1.2432105006e-14
 12         3.0138131159e-14
 13         9.7012870480e-15
 14         3.2012608339e-01
 15         1.3813059837e-02
 16         1.4501726525e-14
 17        -3.0925515278e-14
 18         1.0645276503e-14
 19         3.8458958244e-01
 20         1.6594583168e-02
 21        -5.0172890539e-15
 22         1.2476357029e-14
 23        -2.8628792170e-14
 24         4.3314083451e-01
 25         1.8689511963e-02
 26        -5.5382321882e-15
 27         1.1622443384e-14
 28         2.5849789498e-14
 29         4.3314083451e-01
 30         1.8689511963e-02
 31         1.3196645416e-14
 32        -2.8676094209e-14
 33        -1.2642033204e-14
 34         3.8458958244e-01
 35         1.6594583168e-02
 36        -1.4325869307e-14
 37         3.1743744824e-14
 38        -3.8559227580e-15
 39         3.2012608339e-01
 40         1.3813059837e-02
 41         8.6061685099e-15
 42        -2.0312657171e-14
 43         2.3096580828e-14
 44         2.0540037511e-01
 45         8.8627819449e-03
 46        -5.5777473115e-16
 47         3.6937543231e-15
 48        -2.2149714910e-14
 49         1.1670160178e-01
 50         5.0355353473e-03
 Sym= A
 Ene=         1.4254930959e+00
 Spin= Beta
 Occup=         0.0000000000e+00
  1         1.7593029102e-16
  2        -4.4143388305e-15
  3        -3.5320120359e-14
  4        -5.0355353473e-03
  5         1.1670160178e-01
  6        -1.3035019944e-14
  7         3.1179982824e-14
  8         3.7854834992e-14
  9        -8.8627819449e-03
 10         2.0540037511e-01
 11         2.1998103797e-14
 12        -5.0855676838e-14
 13        -1.3820996309e-14
 14        -1.3813059837e-02
 15         3.2012608339e-01
 16        -2.0686759845e-14
 17         4.7342894233e-14
 18        -1.9795040143e-14
 19        -1.6594583168e-02
 20         3.8458958244e-01
 21         9.5949193129e-15
 22        -2.0265899140e-14
 23         4.5886477407e-14
 24        -1.8689511963e-02
 25         4.3314083451e-01
 26         8.5500442456e-15
 27        -1.9085271121e-14
 28        -4.4128359588e-14
 29        -1.8689511963e-02
 30         4.3314083451e-01
 31        -1.9901691697e-14
 32         4.4968142907e-14
 33         1.7443206122e-14
 34        -1.6594583168e-02
 35         3.8458958244e-01
 36         1.9991369496e-14
 37        -4.6633819222e-14
 38         1.0551271466e-14
 39        -1.3813059837e-02
 40         3.2012608339e-01
 41        -1.2623118253e-14
 42         2.9706753279e-14
 43        -3.2143390365e-14
 44        -8.8627819449e-03
 45         2.0540037511e-01
 46         1.4397412651e-15
 47        -5.6757226575e-15
 48         3.2709374924e-14
 49        -5.0355353473e-03
 50         1.1670160178e-01
 Sym= A
 Ene=         1.4311934671e+00
 Spin= Beta
 Occup=         0.0000000000e+00
  1         9.5980085947e-16
  2        -2.0178335080e-15
  3        -7.9258674545e-15
  4         2.3804229267e-01
  5         1.0490345318e-03
  6        -1.9849386176e-15
  7         5.1979944424e-15
  8         2.3971925535e-15
  9         3.6092157352e-01
 10         1.5905543072e-03
 11         3.7412753011e-15
 12        -8.0520048508e-15
 13        -2.8907609333e-15
 14         4.2894696777e-01
 15         1.8903371181e-03
 16        -3.7049393351e-15
 17         8.2579969232e-15
 18        -6.9403617455e-16
 19         3.3233519356e-01
 20         1.4645762746e-03
 21         1.5581692889e-15
 22        -3.4236262726e-15
 23         8.3302351806e-15
 24         1.1831669240e-01
 25         5.2141279025e-04
 26         2.2957449853e-15
 27        -4.6357229597e-15
 28        -9.3197958972e-15
 29        -1.1831669240e-01
 30        -5.2141279024e-04
 31        -4.2293546007e-15
 32         9.0529179355e-15
 33         1.0829218448e-15
 34        -3.3233519356e-01
 35        -1.4645762746e-03
 36         2.7907316204e-15
 37        -8.1550161263e-15
 38         2.7487758564e-15
 39        -4.2894696777e-01
 40        -1.8903371181e-03
 41        -3.1477009870e-15
 42         6.3912384674e-15
 43        -5.5616636104e-15
 44        -3.6092157352e-01
 45        -1.5905543072e-03
 46         4.9588334178e-16
 47        -1.5418567153e-15
 48         7.8687430232e-15
 49        -2.3804229267e-01
 50        -1.0490345319e-03
 Sym= A
 Ene=         1.4311934671e+00
 Spin= Beta
 Occup=         0.0000000000e+00
  1        -1.1375288746e-17
  2         3.2775135899e-16
  3         4.4519162752e-15
  4        -1.0490345318e-03
  5         2.3804229267e-01
  6         1.5888528084e-15
  7        -2.9878150707e-15
  8        -3.3151788077e-15
  9        -1.5905543072e-03
 10         3.6092157352e-01
 11        -2.0228918910e-15
 12         4.7587534591e-15
 13         3.1046274808e-15
 14        -1.8903371181e-03
 15         4.2894696777e-01
 16         2.7930059112e-15
 17        -6.6398323260e-15
 18        -2.1857379767e-15
 19        -1.4645762745e-03
 20         3.3233519356e-01
 21        -2.9480017940e-15
 22         6.8654308337e-15
 23        -2.2212846792e-15
 24        -5.2141279021e-04
 25         1.1831669240e-01
 26         2.0258229930e-15
 27        -3.7255957125e-15
 28         6.4006795646e-15
 29         5.2141279027e-04
 30        -1.1831669240e-01
 31         7.7163135407e-16
 32        -2.3119634016e-15
 33        -6.6544187586e-15
 34         1.4645762746e-03
 35        -3.3233519356e-01
 36        -3.1002689176e-15
 37         6.6925370782e-15
 38         2.7796401943e-15
 39         1.8903371181e-03
 40        -4.2894696777e-01
 41         2.9679358949e-15
 42        -6.4078377850e-15
 43         3.3360504186e-15
 44         1.5905543072e-03
 45        -3.6092157352e-01
 46        -9.9837151497e-16
 47         2.3686217150e-15
 48        -5.9895997049e-15
 49         1.0490345318e-03
 50        -2.3804229267e-01
 Sym= A
 Ene=         1.4394450670e+00
 Spin= Beta
 Occup=         0.0000000000e+00
  1        -5.1898606983e-16
  2         1.3411925538e-15
  3         4.3836990612e-15
  4        -3.4839689409e-01
  5         1.4897646901e-02
  6         1.4147364654e-15
  7        -4.0212625163e-15
  8        -3.9621890288e-15
  9        -4.0601481138e-01
 10         1.7361421410e-02
 11        -3.9513439376e-15
 12         7.6581987824e-15
 13         4.2871453243e-15
 14        -2.3579496747e-01
 15         1.0082725265e-02
 16         1.7317066828e-15
 17        -5.4582605594e-15
 18         2.9721217630e-15
 19         8.8997528609e-02
 20        -3.8055843171e-03
 21        -7.8188832812e-16
 22         1.7517483834e-15
 23        -5.0741476154e-15
 24         3.8176880800e-01
 25        -1.6324648686e-02
 26        -5.5490218960e-16
 27         2.3928124585e-15
 28         5.6775135706e-15
 29         3.8176880800e-01
 30        -1.6324648686e-02
 31         3.9356290261e-15
 32        -8.2708296475e-15
 33        -5.1224462341e-15
 34         8.8997528610e-02
 35        -3.8055843171e-03
 36        -4.6208054181e-15
 37         9.7184902617e-15
 38        -3.4426038593e-15
 39        -2.3579496747e-01
 40         1.0082725265e-02
 41         1.3960087857e-15
 42        -4.3870389294e-15
 43         7.4467173486e-15
 44        -4.0601481138e-01
 45         1.7361421410e-02
 46         4.2027603718e-16
 47         4.2494514470e-17
 48        -5.7933792551e-15
 49        -3.4839689409e-01
 50         1.4897646901e-02
 Sym= A
 Ene=         1.4394450670e+00
 Spin= Beta
 Occup=         0.0000000000e+00
  1         8.4205474675e-16
  2        -1.6473668448e-15
  3        -3.6217750574e-15
  4         1.4897646901e-02
  5         3.4839689409e-01
  6        -1.7501830570e-15
  7         3.3576813394e-15
  8        -1.5510633230e-16
  9         1.7361421410e-02
 10         4.0601481138e-01
 11         1.2148009894e-15
 12        -2.2276963121e-15
 13         3.1965567177e-15
 14         1.0082725265e-02
 15         2.3579496747e-01
 16         3.9857794835e-16
 17        -6.5085106715e-16
 18        -2.9226863262e-15
 19        -3.8055843171e-03
 20        -8.8997528610e-02
 21        -1.0691843698e-15
 22         2.2848471303e-15
 23         7.3180198496e-16
 24        -1.6324648686e-02
 25        -3.8176880800e-01
 26         1.1618910180e-15
 27        -2.2982358769e-15
 28         5.4619555250e-16
 29        -1.6324648686e-02
 30        -3.8176880800e-01
 31        -1.1644045833e-16
 32         4.8845399159e-18
 33        -4.1566514118e-15
 34        -3.8055843171e-03
 35        -8.8997528609e-02
 36        -2.2061602792e-15
 37         4.2985979059e-15
 38         3.3621071213e-15
 39         1.0082725265e-02
 40         2.3579496747e-01
 41         2.2272598617e-15
 42        -4.5307952932e-15
 43         2.3289636295e-15
 44         1.7361421410e-02
 45         4.0601481138e-01
 46        -4.0389958300e-16
 47         1.1310177806e-15
 48        -5.3602231948e-15
 49         1.4897646901e-02
 50         3.4839689409e-01
 Sym= A
 Ene=         1.4496421446e+00
 Spin= Beta
 Occup=         0.0000000000e+00
  1         8.2959557641e-16
  2        -1.3470852731e-15
  3        -4.5546901041e-15
  4        -4.2809664723e-01
  5         4.6088246833e-03
  6        -1.1124372180e-15
  7         4.3167705395e-15
  8         4.8415932610e-15
  9        -3.1474126006e-01
 10         3.3884574841e-03
 11         3.2644325235e-15
 12        -7.0681309306e-15
 13         2.5309643065e-16
 14         1.4240614822e-01
 15        -1.5331233617e-03
 16        -2.7701262758e-15
 17         5.3348981784e-15
 18        -6.9672347402e-15
 19         3.9308651965e-01
 20        -4.2319108691e-03
 21        -7.9023738325e-16
 22         6.4023383299e-17
 23         6.2100260714e-15
 24         2.0134559580e-01
 25        -2.1676566677e-03
 26         9.3527169684e-16
 27        -2.6087424745e-15
 28        -4.0579676973e-15
 29        -2.0134559580e-01
 30         2.1676566677e-03
 31        -3.3568801498e-15
 32         6.4261628164e-15
 33         4.3732060864e-15
 34        -3.9308651965e-01
 35         4.2319108691e-03
 36         2.7390619349e-15
 37        -6.2741391962e-15
 38         3.5211853348e-15
 39        -1.4240614822e-01
 40         1.5331233617e-03
 41        -1.1681322752e-15
 42         3.6946977898e-15
 43        -3.3202205023e-15
 44         3.1474126006e-01
 45        -3.3884574841e-03
 46         9.7172440966e-16
 47        -1.7074020415e-15
 48         4.5092192123e-15
 49         4.2809664723e-01
 50        -4.6088246833e-03
 Sym= A
 Ene=         1.4496421446e+00
 Spin= Beta
 Occup=         0.0000000000e+00
  1         6.8574607019e-16
  2        -1.1930746575e-15
  3        -4.1415172119e-15
  4         4.6088246833e-03
  5         4.2809664723e-01
  6        -1.0764491891e-15
  7         2.7582063223e-15
  8         1.4271914352e-15
  9         3.3884574841e-03
 10         3.1474126006e-01
 11         1.4046545613e-15
 12        -2.2771792520e-15
 13         2.9540714327e-15
 14        -1.5331233617e-03
 15        -1.4240614822e-01
 16         1.0285203455e-15
 17        -2.0817349157e-15
 18        -4.7073634046e-15
 19        -4.2319108691e-03
 20        -3.9308651965e-01
 21        -2.4580035222e-15
 22         4.7537423541e-15
 23         1.0079148177e-15
 24        -2.1676566677e-03
 25        -2.0134559580e-01
 26         1.7203797721e-15
 27        -3.6897159034e-15
 28         3.8633311180e-15
 29         2.1676566677e-03
 30         2.0134559580e-01
 31        -4.0538683261e-16
 32         7.6357609574e-16
 33        -3.2332243093e-15
 34         4.2319108691e-03
 35         3.9308651965e-01
 36        -1.2654472279e-15
 37         2.2083501460e-15
 38         1.7650877288e-15
 39         1.5331233617e-03
 40         1.4240614822e-01
 41         1.3985274811e-15
 42        -2.8179794209e-15
 43         1.7584732297e-15
 44        -3.3884574841e-03
 45        -3.1474126006e-01
 46        -4.6210605276e-16
 47         1.0723325974e-15
 48        -2.7211164664e-15
 49        -4.6088246833e-03
 50        -4.2809664723e-01
 Sym= A
 Ene=         1.4600406173e+00
 Spin= Beta
 Occup=         0.0000000000e+00
  1        -2.0932868808e-16
  2         2.1640673128e-16
  3        -9.2933351903e-16
  4        -4.0659575785e-01
  5         7.9661456516e-02
  6        -4.4892569225e-17
  7         3.3221786937e-16
  8         1.8634888727e-16
  9        -1.2198816550e-01
 10         2.3900286104e-02
 11         4.9403280120e-16
 12        -3.8746477958e-16
 13        -2.7242336273e-16
 14         3.8090743293e-01
 15        -7.4628523095e-02
 16         3.5865106207e-16
 17        -1.2755096052e-16
 18         1.2762678973e-15
 19         2.3118306884e-01
 20        -4.5294078037e-02
 21         6.8693737998e-16
 22        -1.2054491665e-15
 23        -6.2917861957e-16
 24        -3.1940449833e-01
 25         6.2578684267e-02
 26        -8.6786491950e-16
 27         2.2726921710e-15
 28         2.1293897789e-15
 29        -3.1940449833e-01
 30         6.2578684267e-02
 31         1.6677750176e-15
 32        -4.1086260862e-15
 33        -1.1002224886e-15
 34         2.3118306884e-01
 35        -4.5294078037e-02
 36        -2.3603439458e-15
 37         5.0585188496e-15
 38        -1.6847388813e-16
 39         3.8090743293e-01
 40        -7.4628523095e-02
 41         1.0709124804e-15
 42        -2.9443510620e-15
 43         3.6007945384e-15
 44        -1.2198816550e-01
 45         2.3900286104e-02
 46         7.7570220960e-16
 47        -4.6338549979e-16
 48        -3.9348683785e-15
 49        -4.0659575785e-01
 50         7.9661456516e-02
 Sym= A
 Ene=         1.4600406173e+00
 Spin= Beta
 Occup=         0.0000000000e+00
  1         5.9178182728e-16
  2        -5.0637497202e-16
  3         2.0868524966e-15
  4         7.9661456516e-02
  5         4.0659575785e-01
  6         3.6215400412e-16
  7        -8.9294396156e-16
  8        -1.3313601879e-15
  9         2.3900286104e-02
 10         1.2198816550e-01
 11        -5.8454546545e-17
 12         5.6513252076e-16
 13        -1.6321372321e-15
 14        -7.4628523095e-02
 15        -3.8090743293e-01
 16        -6.6143127285e-17
 17         4.2826071034e-16
 18         2.0009576468e-15
 19        -4.5294078037e-02
 20        -2.3118306884e-01
 21         9.6507237449e-16
 22        -2.5681515849e-15
 23        -3.0684564364e-15
 24         6.2578684267e-02
 25         3.1940449833e-01
 26        -2.0893768055e-15
 27         4.1717975132e-15
 28        -1.6461412517e-15
 29         6.2578684267e-02
 30         3.1940449833e-01
 31         9.7047708792e-16
 32        -2.4547918883e-15
 33         3.5621886346e-15
 34        -4.5294078037e-02
 35        -2.3118306884e-01
 36         6.0635417961e-16
 37        -1.3373585059e-15
 38        -3.0942876773e-15
 39        -7.4628523095e-02
 40        -3.8090743293e-01
 41        -1.4221864652e-15
 42         2.6458018706e-15
 43        -1.2911560570e-15
 44         2.3900286104e-02
 45         1.2198816550e-01
 46         4.9263973045e-16
 47        -7.5972002196e-16
 48         1.0964995225e-15
 49         7.9661456516e-02
 50         4.0659575785e-01
 Sym= A
 Ene=         1.4759767662e+00
 Spin= Beta
 Occup=         0.0000000000e+00
  1         5.0444289708e-16
  2        -1.3314404359e-15
  3        -5.1128479376e-15
  4         5.9623364816e-02
  5         3.6836370686e-01
  6        -1.5374679398e-15
  7         3.3765205070e-15
  8         8.7284719249e-16
  9        -2.1599180875e-02
 10        -1.3344356456e-01
 11         3.7518817146e-16
 12        -1.2907694601e-15
 13         4.1899992001e-15
 14        -6.2473556408e-02
 15        -3.8597269526e-01
 16         1.2698903996e-15
 17        -2.3393189594e-15
 18        -2.1185331033e-15
 19         4.1456047427e-02
 20         2.5612280268e-01
 21        -1.4109761946e-15
 22         2.1679364334e-15
 23        -3.2824444100e-15
 24         5.6050280861e-02
 25         3.4628856140e-01
 26        -3.6082756852e-16
 27         1.3467692049e-15
 28         3.6056060333e-15
 29        -5.6050280861e-02
 30        -3.4628856140e-01
 31         1.7526505969e-15
 32        -3.2547108886e-15
 33        -1.1630323614e-16
 34        -4.1456047427e-02
 35        -2.5612280268e-01
 36        -6.0278447570e-16
 37         1.8617372896e-15
 38        -4.0576821783e-15
 39         6.2473556408e-02
 40         3.8597269526e-01
 41         5.3286248894e-17
 42         1.6441667556e-16
 43         3.8950518095e-15
 44         2.1599180875e-02
 45         1.3344356456e-01
 46        -2.3261077073e-16
 47        -5.6000024934e-16
 48         7.2328376281e-16
 49        -5.9623364816e-02
 50        -3.6836370686e-01
 Sym= A
 Ene=         1.4759767662e+00
 Spin= Beta
 Occup=         0.0000000000e+00
  1         6.9449429400e-16
  2        -1.2096796498e-15
  3        -4.5429377668e-15
  4        -3.6836370686e-01
  5         5.9623364816e-02
  6        -1.9486115881e-15
  7         4.3797756818e-15
  8         3.3387379317e-15
  9         1.3344356456e-01
 10        -2.1599180875e-02
 11         2.4073559881e-15
 12        -5.1878763922e-15
 13         1.7286342748e-15
 14         3.8597269526e-01
 15        -6.2473556408e-02
 16        -9.8404723508e-16
 17         2.5853011355e-15
 18        -3.8305861159e-15
 19        -2.5612280268e-01
 20         4.1456047427e-02
 21        -2.0626888343e-16
 22         3.8232939718e-16
 23         3.1132834977e-15
 24        -3.4628856140e-01
 25         5.6050280861e-02
 26         7.5202312112e-16
 27        -1.0283603889e-15
 28         2.4610407928e-15
 29         3.4628856140e-01
 30        -5.6050280861e-02
 31         2.9281169740e-15
 32        -4.5487690188e-15
 33        -6.4373331547e-15
 34         2.5612280268e-01
 35        -4.1456047427e-02
 36        -4.0019811509e-15
 37         9.1295850228e-15
 38         5.1373815041e-15
 39        -3.8597269526e-01
 40         6.2473556408e-02
 41         3.0196933919e-15
 42        -8.2945399818e-15
 43         6.7995316342e-15
 44        -1.3344356456e-01
 45         2.1599180875e-02
 46        -4.6807262752e-16
 47         2.1101579554e-15
 48        -1.1883084691e-14
 49         3.6836370686e-01
 50        -5.9623364816e-02
 Sym= A
 Ene=         1.4887682499e+00
 Spin= Beta
 Occup=         0.0000000000e+00
  1        -1.8809427803e-15
  2         5.6090928191e-15
  3         1.9701119045e-14
  4         3.6515207836e-01
  5         2.0498925445e-02
  6         8.0104577705e-15
  7        -1.8557986752e-14
  8        -1.2776958899e-14
  9        -3.2594905623e-01
 10        -1.8298144249e-02
 11        -9.0630200742e-15
 12         1.9889906063e-14
 13        -6.9032671263e-15
 14        -1.5856134889e-01
 15        -8.9013248509e-03
 16         2.5406440538e-15
 17        -5.8495367777e-15
 18         2.1029956054e-14
 19         4.3620964979e-01
 20         2.4487958907e-02
 21         4.0359506233e-15
 22        -9.3756946340e-15
 23        -1.2303487354e-14
 24        -2.1384664802e-01
 25        -1.2004933709e-02
 26        -6.4708780380e-15
 27         1.3171504988e-14
 28        -6.6335371388e-15
 29        -2.1384664802e-01
 30        -1.2004933709e-02
 31        -3.2007822665e-16
 32         3.4013368607e-16
 33         2.0130290781e-14
 34         4.3620964979e-01
 35         2.4487958907e-02
 36         7.0382483795e-15
 37        -1.5396244053e-14
 38        -1.2197177073e-14
 39        -1.5856134890e-01
 40        -8.9013248509e-03
 41        -7.0659259296e-15
 42         1.7087533012e-14
 43        -8.7539615140e-15
 44        -3.2594905623e-01
 45        -1.8298144249e-02
 46         1.4155400363e-15
 47        -5.1615418249e-15
 48         2.0011040793e-14
 49         3.6515207836e-01
 50         2.0498925445e-02
 Sym= A
 Ene=         1.4887682499e+00
 Spin= Beta
 Occup=         0.0000000000e+00
  1        -1.2720786332e-15
  2         2.6352101461e-15
  3         6.4688853323e-15
  4        -2.0498925445e-02
  5         3.6515207836e-01
  6         3.2863389793e-15
  7        -7.3070503787e-15
  8        -5.4019741061e-15
  9         1.8298144249e-02
 10        -3.2594905623e-01
 11        -3.5953686539e-15
 12         7.6440002279e-15
 13        -3.0563834607e-15
 14         8.9013248509e-03
 15        -1.5856134890e-01
 16        -6.8430507572e-16
 17         4.4274289248e-16
 18         1.1295000310e-14
 19        -2.4487958907e-02
 20         4.3620964979e-01
 21         4.4240141555e-15
 22        -9.3996196958e-15
 23        -9.0516632972e-15
 24         1.2004933709e-02
 25        -2.1384664802e-01
 26        -5.0042755206e-15
 27         1.1051434183e-14
 28        -5.6196051258e-15
 29         1.2004933709e-02
 30        -2.1384664802e-01
 31         1.6105295091e-15
 32        -2.4723795086e-15
 33         1.5597309355e-14
 34        -2.4487958907e-02
 35         4.3620964979e-01
 36         4.7526303977e-15
 37        -1.0830005708e-14
 38        -1.1859773707e-14
 39         8.9013248509e-03
 40        -1.5856134890e-01
 41        -6.7009075945e-15
 42         1.4255832931e-14
 43        -7.4804158967e-15
 44         1.8298144249e-02
 45        -3.2594905623e-01
 46         2.4748203731e-15
 47        -5.3201194838e-15
 48         1.4485563861e-14
 49        -2.0498925445e-02
 50         3.6515207836e-01
 Sym= A
 Ene=         1.4986945392e+00
 Spin= Beta
 Occup=         0.0000000000e+00
  1         3.6494387014e-02
  2        -1.0868207435e-01
  3        -3.7950945033e-01
  4        -5.6092550947e-14
  5        -1.4348896111e-13
  6        -1.6087247453e-01
  7         3.5862705746e-01
  8         2.2695861531e-01
  9         9.9403268189e-14
 10         1.7374706661e-13
 11         1.5875056009e-01
 12        -3.4284318796e-01
 13         2.3334467674e-01
 14        -7.3590358757e-14
 15        -8.1010621685e-14
 16         3.3002674221e-04
 17         4.7606573967e-03
 18        -4.6603088044e-01
 19         3.5446866419e-15
 20        -7.6803461312e-14
 21        -1.5039306974e-01
 22         3.2240228526e-01
 23         2.3059427948e-01
 24         7.8519943402e-14
 25         2.0892922184e-13
 26         1.5039306974e-01
 27        -3.2240228526e-01
 28         2.3059427948e-01
 29        -1.0576213488e-13
 30        -2.1092459191e-13
 31        -3.3002674222e-04
 32        -4.7606573967e-03
 33        -4.6603088044e-01
 34         5.4835094385e-14
 35         9.1928173809e-14
 36        -1.5875056009e-01
 37         3.4284318796e-01
 38         2.3334467674e-01
 39         2.6900754922e-14
 40         7.2788840627e-14
 41         1.6087247453e-01
 42        -3.5862705746e-01
 43         2.2695861531e-01
 44        -9.6512662381e-14
 45        -2.1467646548e-13
 46        -3.6494387014e-02
 47         1.0868207435e-01
 48        -3.7950945033e-01
 49         7.5596690488e-14
 50         1.7159469443e-13
 Sym= A
 Ene=         1.4997472666e+00
 Spin= Beta
 Occup=         0.0000000000e+00
  1         9.6536178222e-15
  2        -2.8005851431e-14
  3        -9.5851103477e-14
  4         3.1923676708e-01
  5         1.9054585682e-02
  6        -4.0718752130e-14
  7         9.0584205333e-14
  8         5.5396287912e-14
  9        -4.3042436640e-01
 10        -2.5691144677e-02
 11         4.0330907433e-14
 12        -8.6973301039e-14
 13         5.7244492051e-14
 14         1.8769382783e-01
 15         1.1203058335e-02
 16        -4.5533079205e-16
 17         2.1224777072e-15
 18        -1.1912719070e-13
 19         1.3975690626e-01
 20         8.3418021343e-03
 21        -3.8557692987e-14
 22         8.3154658149e-14
 23         6.3075063881e-14
 24        -3.9991439393e-01
 25        -2.3870067205e-02
 26         3.9861437006e-14
 27        -8.5386614470e-14
 28         5.8236449739e-14
 29         3.9991439393e-01
 30         2.3870067205e-02
 31        -1.3611191923e-15
 32         1.5789909499e-15
 33        -1.1993577954e-13
 34        -1.3975690626e-01
 35        -8.3418021343e-03
 36        -3.9889825960e-14
 37         8.5788205971e-14
 38         6.0654769084e-14
 39        -1.8769382783e-01
 40        -1.1203058335e-02
 41         4.1084386949e-14
 42        -9.1182479383e-14
 43         5.4359361076e-14
 44         4.3042436640e-01
 45         2.5691144677e-02
 46        -9.5066328126e-15
 47         2.8367383806e-14
 48        -9.3917277839e-14
 49        -3.1923676708e-01
 50        -1.9054585682e-02
 Sym= A
 Ene=         1.4997472666e+00
 Spin= Beta
 Occup=         0.0000000000e+00
  1         1.8007577395e-14
  2        -5.2016118102e-14
  3        -1.7817147873e-13
  4        -1.9054585682e-02
  5         3.1923676708e-01
  6        -7.6384707562e-14
  7         1.6967202226e-13
  8         1.0801545695e-13
  9         2.5691144677e-02
 10        -4.3042436640e-01
 11         7.4521343602e-14
 12        -1.6106937888e-13
 13         1.1079396980e-13
 14        -1.1203058335e-02
 15         1.8769382783e-01
 16         1.4906919356e-15
 17         1.7126960168e-16
 18        -2.2103032287e-13
 19        -8.3418021343e-03
 20         1.3975690626e-01
 21        -7.2209106235e-14
 22         1.5425026340e-13
 23         1.0725481342e-13
 24         2.3870067205e-02
 25        -3.9991439393e-01
 26         7.0759854230e-14
 27        -1.5187200917e-13
 28         1.1140071590e-13
 29        -2.3870067205e-02
 30         3.9991439393e-01
 31        -2.3544412688e-16
 32        -3.0530214701e-15
 33        -2.1907792574e-13
 34         8.3418021343e-03
 35        -1.3975690626e-01
 36        -7.5033000808e-14
 37         1.6213505403e-13
 38         1.0750426989e-13
 39         1.1203058335e-02
 40        -1.8769382783e-01
 41         7.6148304611e-14
 42        -1.6878342269e-13
 43         1.0826278456e-13
 44        -2.5691144677e-02
 45         4.3042436640e-01
 46        -1.6560495982e-14
 47         5.0373819713e-14
 48        -1.7796651737e-13
 49         1.9054585682e-02
 50        -3.1923676708e-01
 Sym= A
 Ene=         1.5081009045e+00
 Spin= Beta
 Occup=         0.0000000000e+00
  1        -1.5193076243e-15
  2         4.4744566548e-15
  3         1.4695854105e-14
  4        -2.4348676283e-01
  5         7.7709968685e-03
  6         6.4045078978e-15
  7        -1.3844180521e-14
  8        -8.5185110484e-15
  9         4.1280754781e-01
 10        -1.3174950967e-02
 11        -5.3450241158e-15
 12         1.1581537727e-14
 13        -1.1425623927e-14
 14        -4.0695080191e-01
 15         1.2988030111e-02
 16        -1.7287955352e-15
 17         3.1087531203e-15
 18         1.8460815252e-14
 19         3.1214791102e-01
 20        -9.9623503589e-03
 21         6.7439041575e-15
 22        -1.4242571713e-14
 23        -5.5522495084e-15
 24        -1.0703002114e-01
 25         3.4159144810e-03
 26        -4.8647857208e-15
 27         1.0780359578e-14
 28        -1.2095849046e-14
 29        -1.0703002114e-01
 30         3.4159144811e-03
 31        -9.4297510877e-16
 32         2.4817554467e-15
 33         1.6418851118e-14
 34         3.1214791102e-01
 35        -9.9623503590e-03
 36         6.2102549721e-15
 37        -1.3419043034e-14
 38        -4.9601870730e-15
 39        -4.0695080191e-01
 40         1.2988030111e-02
 41        -5.7073581933e-15
 42         1.2404948988e-14
 43        -9.8312452195e-15
 44         4.1280754781e-01
 45        -1.3174950967e-02
 46         1.5416146416e-15
 47        -3.7196509267e-15
 48         1.1883018622e-14
 49        -2.4348676283e-01
 50         7.7709968685e-03
 Sym= A
 Ene=         1.5081009045e+00
 Spin= Beta
 Occup=         0.0000000000e+00
  1        -1.1209583949e-15
  2         2.4435909494e-15
  3         8.9922111384e-15
  4         7.7709968685e-03
  5         2.4348676283e-01
  6         3.1161104403e-15
  7        -7.1784140742e-15
  8        -4.2993182317e-15
  9        -1.3174950967e-02
 10        -4.1280754781e-01
 11        -2.3185458428e-15
 12         5.4873395828e-15
 13        -7.4803299365e-15
 14         1.2988030111e-02
 15         4.0695080191e-01
 16        -9.4691368557e-16
 17         1.7791011915e-15
 18         8.7312508711e-15
 19        -9.9623503589e-03
 20        -3.1214791102e-01
 21         2.4607431131e-15
 22        -5.8927258021e-15
 23        -1.5591314584e-15
 24         3.4159144810e-03
 25         1.0703002114e-01
 26        -1.9018641875e-15
 27         3.8063311582e-15
 28        -4.5987422157e-15
 29         3.4159144810e-03
 30         1.0703002114e-01
 31        -4.6594134694e-16
 32         1.2852954016e-15
 33         4.1166761708e-15
 34        -9.9623503589e-03
 35        -3.1214791102e-01
 36         2.7441271451e-15
 37        -4.7687051863e-15
 38        -8.2341838375e-16
 39         1.2988030111e-02
 40         4.0695080191e-01
 41        -2.0991006067e-15
 42         4.0064156951e-15
 43        -2.9943289226e-15
 44        -1.3174950967e-02
 45        -4.1280754781e-01
 46        -4.2995254232e-16
 47        -4.5757981517e-16
 48         3.2501081869e-15
 49         7.7709968685e-03
 50         2.4348676283e-01
 Sym= A
 Ene=         1.5128707479e+00
 Spin= Beta
 Occup=         0.0000000000e+00
  1        -1.2293676550e-15
  2         4.7632899400e-15
  3         1.5094043253e-14
  4        -1.0572042725e-02
  5         1.3575166045e-01
  6         8.3012510381e-15
  7        -1.7005898455e-14
  8        -9.3859936690e-15
  9         2.0020920757e-02
 10        -2.5708118168e-01
 11        -7.3630928631e-15
 12         1.5614644200e-14
 13        -1.0198969542e-14
 14        -2.5458954984e-02
 15         3.2690895245e-01
 16         2.6789274678e-17
 17        -6.7813598120e-16
 18         1.9612122017e-14
 19         2.9882682550e-02
 20        -3.8371238941e-01
 21         6.8188911528e-15
 22        -1.4023150356e-14
 23        -1.1529363917e-14
 24        -3.1510715144e-02
 25         4.0461734918e-01
 26        -5.8965932170e-15
 27         1.3249633343e-14
 28        -1.1603734016e-14
 29         3.1510715144e-02
 30        -4.0461734918e-01
 31        -4.0271613235e-16
 32         7.0866420845e-16
 33         1.9106337345e-14
 34        -2.9882682550e-02
 35         3.8371238941e-01
 36         6.0880004219e-15
 37        -1.4016985147e-14
 38        -9.1886802539e-15
 39         2.5458954984e-02
 40        -3.2690895245e-01
 41        -6.8022659521e-15
 42         1.4900104669e-14
 43        -9.7386763004e-15
 44        -2.0020920757e-02
 45         2.5708118168e-01
 46         1.7672173511e-15
 47        -4.7501526503e-15
 48         1.5415968185e-14
 49         1.0572042725e-02
 50        -1.3575166045e-01
 Sym= A
 Ene=         1.5128707479e+00
 Spin= Beta
 Occup=         0.0000000000e+00
  1        -4.9142885540e-16
  2         6.0648261963e-16
  3        -1.1475970717e-15
  4         1.3575166045e-01
  5         1.0572042725e-02
  6        -4.0466428991e-16
  7         7.5542473302e-16
  8         3.0491310524e-15
  9        -2.5708118168e-01
 10        -2.0020920757e-02
 11         4.2165859019e-16
 12        -5.4808997545e-16
 13         3.2068965562e-15
 14         3.2690895245e-01
 15         2.5458954984e-02
 16         1.5533426053e-15
 17        -2.7795750702e-15
 18        -3.2186793338e-15
 19        -3.8371238941e-01
 20        -2.9882682550e-02
 21        -1.2962579365e-15
 22         3.1508592450e-15
 23        -1.6083688641e-15
 24         4.0461734918e-01
 25         3.1510715144e-02
 26         8.1947607677e-17
 27        -5.1986029113e-16
 28         3.4999690602e-15
 29        -4.0461734918e-01
 30        -3.1510715144e-02
 31         4.9633856593e-16
 32        -9.4408179530e-16
 33         4.2011897331e-16
 34         3.8371238941e-01
 35         2.9882682550e-02
 36        -1.4686396697e-16
 37         4.9364663341e-16
 38        -1.1327054632e-15
 39        -3.2690895245e-01
 40        -2.5458954984e-02
 41         5.9784758543e-16
 42        -1.1158087722e-15
 43        -7.0902446624e-16
 44         2.5708118168e-01
 45         2.0020920757e-02
 46        -5.2004564900e-16
 47         1.0421101355e-15
 48        -1.5570701069e-15
 49        -1.3575166045e-01
 50        -1.0572042725e-02
 Sym= A
 Ene=         1.5623918335e+00
 Spin= Beta
 Occup=         0.0000000000e+00
  1         5.1376349283e-02
  2        -1.3256513127e-01
  3        -3.8478908060e-01
  4        -4.1092611424e-15
  5        -5.4264416938e-15
  6        -1.4386285663e-01
  7         3.0548479456e-01
  8         4.0380518611e-02
  9         5.7355480872e-15
 10         3.7592650735e-15
 11         4.8524382149e-02
 12        -9.9040064452e-02
 13         4.4885842588e-01
 14         6.6590159054e-16
 15         1.0590700072e-14
 16         1.1922848079e-01
 17        -2.3593828698e-01
 18        -2.3283736159e-01
 19         7.6040856303e-16
 20        -4.9019413666e-15
 21        -8.9183782856e-02
 22         1.7554929510e-01
 23        -3.6149173405e-01
 24        -6.3547032825e-15
 25         3.8918448374e-15
 26        -8.9183782856e-02
 27         1.7554929510e-01
 28         3.6149173405e-01
 29         4.2519189783e-15
 30         4.6028785549e-15
 31         1.1922848079e-01
 32        -2.3593828698e-01
 33         2.3283736159e-01
 34        -2.0491326941e-16
 35        -3.7537905054e-15
 36         4.8524382149e-02
 37        -9.9040064452e-02
 38        -4.4885842588e-01
 39        -3.8725281260e-15
 40         3.1513829163e-15
 41        -1.4386285663e-01
 42         3.0548479456e-01
 43        -4.0380518611e-02
 44         1.9434326716e-15
 45        -1.0395522157e-15
 46         5.1376349283e-02
 47        -1.3256513127e-01
 48         3.8478908060e-01
 49        -1.9116356721e-15
 50         3.1716570064e-15
 Sym= A
 Ene=         1.6268679656e+00
 Spin= Beta
 Occup=         0.0000000000e+00
  1         5.9829863455e-02
  2        -1.4091165358e-01
  3        -3.8359053114e-01
  4         2.2136331537e-15
  5        -3.6860723302e-16
  6        -9.9635619879e-02
  7         2.0824884497e-01
  8        -1.8261107980e-01
  9        -3.9083419048e-15
 10        -2.0200632284e-15
 11        -4.1034819090e-02
 12         7.9052332088e-02
 13         4.1412469248e-01
 14        -1.8438823848e-15
 15         1.2486882436e-15
 16         7.8893536070e-02
 17        -1.5355567016e-01
 18         2.6459985347e-01
 19         1.0207744196e-16
 20         2.6314656477e-15
 21         6.4865196635e-02
 22        -1.3037211599e-01
 23        -3.5062778935e-01
 24        -9.9260153302e-16
 25         8.0588688958e-16
 26        -6.4865196635e-02
 27         1.3037211599e-01
 28        -3.5062778935e-01
 29        -9.3051377149e-16
 30         4.0199865867e-15
 31        -7.8893536070e-02
 32         1.5355567016e-01
 33         2.6459985347e-01
 34        -1.3184809495e-15
 35         1.0653385322e-16
 36         4.1034819090e-02
 37        -7.9052332088e-02
 38         4.1412469248e-01
 39         1.8402128283e-16
 40         1.3901897988e-16
 41         9.9635619879e-02
 42        -2.0824884497e-01
 43        -1.8261107980e-01
 44        -3.5596869655e-16
 45        -1.1495058773e-15
 46        -5.9829863455e-02
 47         1.4091165358e-01
 48        -3.8359053114e-01
 49        -6.8260337792e-16
 50        -1.3098426310e-15
 Sym= A
 Ene=         1.6823041018e+00
 Spin= Beta
 Occup=         0.0000000000e+00
  1         6.1342212190e-02
  2        -1.3735053041e-01
  3        -3.7015601069e-01
  4        -1.9089159844e-15
  5        -2.4259878122e-16
  6        -5.2257243868e-02
  7         1.1541494269e-01
  8        -3.6738984630e-01
  9        -1.3334617406e-15
 10         1.4303813662e-16
 11        -6.4677250702e-02
 12         1.1893579047e-01
 13         1.3717896435e-01
 14         1.7575711997e-16
 15         4.7887980604e-16
 16        -1.3039293508e-02
 17         1.9633611398e-02
 18         4.4829795799e-01
 19        -3.1386194736e-15
 20        -1.3655504733e-15
 21         6.0380288901e-02
 22        -1.1052082092e-01
 23         2.4106058406e-01
 24         1.9398277896e-15
 25        -9.8948161469e-16
 26         6.0380288901e-02
 27        -1.1052082092e-01
 28        -2.4106058406e-01
 29        -1.3800550989e-15
 30         1.0847163437e-15
 31        -1.3039293508e-02
 32         1.9633611398e-02
 33        -4.4829795799e-01
 34         2.4894012409e-15
 35        -7.5329883370e-16
 36        -6.4677250702e-02
 37         1.1893579047e-01
 38        -1.3717896435e-01
 39         1.9284757812e-15
 40        -2.6728800629e-15
 41        -5.2257243868e-02
 42         1.1541494269e-01
 43         3.6738984630e-01
 44         5.1705639764e-15
 45        -8.3796240843e-16
 46         6.1342212190e-02
 47        -1.3735053041e-01
 48         3.7015601069e-01
 49         3.8684309453e-15
 50        -6.6194440549e-16
 Sym= A
 Ene=         1.7315033601e+00
 Spin= Beta
 Occup=         0.0000000000e+00
  1         5.3721856489e-02
  2        -1.1683473348e-01
  3        -3.1763015079e-01
  4        -8.7271185061e-16
  5         5.2281785775e-16
  6        -1.0967407956e-02
  7         3.6606376007e-02
  8        -4.5983572802e-01
  9         1.5514964127e-16
 10        -5.9879505168e-16
 11        -4.0633695949e-02
 12         6.8343931304e-02
 13        -2.3173220601e-01
 14        -2.0631793433e-16
 15         2.3011601277e-16
 16        -4.7383078409e-02
 17         8.7449395860e-02
 18         1.2784539939e-01
 19         1.2082358453e-15
 20         8.2459810668e-16
 21        -1.6294933568e-02
 22         3.5703166911e-02
 23         4.1359171221e-01
 24         3.8059507458e-15
 25         1.0283153800e-15
 26         1.6294933568e-02
 27        -3.5703166911e-02
 28         4.1359171221e-01
 29         7.2196191874e-16
 30        -2.9189830039e-16
 31         4.7383078409e-02
 32        -8.7449395860e-02
 33         1.2784539939e-01
 34         2.1302320503e-15
 35         4.5231676997e-16
 36         4.0633695949e-02
 37        -6.8343931304e-02
 38        -2.3173220601e-01
 39         1.8250972684e-15
 40        -3.0741844695e-16
 41         1.0967407956e-02
 42        -3.6606376007e-02
 43        -4.5983572802e-01
 44        -1.0318035758e-15
 45         1.1588987317e-15
 46        -5.3721856489e-02
 47         1.1683473348e-01
 48        -3.1763015079e-01
 49         2.5068109719e-15
 50        -3.0487564877e-16
 Sym= A
 Ene=         1.7703060414e+00
 Spin= Beta
 Occup=         0.0000000000e+00
  1         3.9568661925e-02
  2        -8.4751176827e-02
  3        -2.3378017802e-01
  4         7.0735492454e-17
  5         3.7323396955e-17
  6         1.0882603930e-02
  7        -7.3888858836e-03
  8        -4.2139364083e-01
  9        -1.2014900662e-15
 10        -2.5762355254e-16
 11        -7.4088628634e-03
 12         4.5698525155e-03
 13        -4.4011965681e-01
 14        -1.7949505540e-15
 15         3.5437133879e-16
 16        -1.6890749887e-02
 17         3.7132543167e-02
 18        -3.3893593668e-01
 19        -2.6400479807e-15
 20         1.3821155174e-15
 21        -2.9466725788e-02
 22         5.2608602669e-02
 23        -1.2330684274e-01
 24         9.6434077662e-16
 25         1.0223566288e-16
 26        -2.9466725788e-02
 27         5.2608602669e-02
 28         1.2330684274e-01
 29         2.5584467451e-16
 30         2.7218502387e-16
 31        -1.6890749887e-02
 32         3.7132543167e-02
 33         3.3893593668e-01
 34         2.1321772707e-15
 35         6.9045527494e-16
 36        -7.4088628634e-03
 37         4.5698525155e-03
 38         4.4011965681e-01
 39        -4.6247838034e-16
 40        -6.3650512130e-16
 41         1.0882603930e-02
 42        -7.3888858836e-03
 43         4.2139364083e-01
 44        -1.6153945416e-15
 45         9.8862493259e-17
 46         3.9568661925e-02
 47        -8.4751176827e-02
 48         2.3378017802e-01
 49        -1.8844403376e-15
 50         7.1286348390e-16
 Sym= A
 Ene=         1.7947831791e+00
 Spin= Beta
 Occup=         0.0000000000e+00
  1         2.1003222413e-02
  2        -4.4667045117e-02
  3        -1.2472930806e-01
  4        -1.4126730341e-15
  5        -1.3315086138e-15
  6         1.1949250090e-02
  7        -1.5122013034e-02
  8        -2.5258721738e-01
  9        -1.8797445769e-15
 10         5.8685676002e-16
 11         6.2765509068e-03
 12        -1.7953952442e-02
 13        -3.4055354862e-01
 14         8.0068767615e-16
 15        -3.5392955099e-16
 16         9.6515561203e-03
 17        -1.1558686425e-02
 18        -4.0896847806e-01
 19         6.7206106842e-16
 20         7.5173945344e-16
 21        -2.6591196083e-03
 22        -1.4580656010e-03
 23        -4.4164480955e-01
 24        -1.9044092888e-16
 25        -9.4274316821e-16
 26         2.6591196083e-03
 27         1.4580656010e-03
 28        -4.4164480955e-01
 29        -6.8090980881e-16
 30         8.8174665174e-16
 31        -9.6515561203e-03
 32         1.1558686425e-02
 33        -4.0896847806e-01
 34         1.5700250838e-15
 35        -4.7254213118e-16
 36        -6.2765509068e-03
 37         1.7953952442e-02
 38        -3.4055354862e-01
 39         3.3769609557e-17
 40         9.1385928531e-16
 41        -1.1949250090e-02
 42         1.5122013034e-02
 43        -2.5258721738e-01
 44        -1.1697620888e-16
 45        -2.9229760390e-16
 46        -2.1003222413e-02
 47         4.4667045117e-02
 48        -1.2472930806e-01
 49         1.5364993042e-15
 50        -1.7095219323e-15
